p wcnf 940 2554 260
1 -181 0
1 -182 0
1 -183 0
1 -184 0
1 -185 0
1 -186 0
1 -187 0
1 -188 0
1 -189 0
1 -190 0
1 -191 0
1 -192 0
1 -193 0
1 -194 0
1 -195 0
1 -196 0
1 -197 0
1 -198 0
1 -199 0
1 -200 0
1 -201 0
1 -202 0
1 -203 0
1 -204 0
1 -205 0
1 -206 0
1 -207 0
1 -208 0
1 -209 0
1 -210 0
1 -211 0
1 -212 0
1 -213 0
1 -214 0
1 -215 0
1 -216 0
1 -217 0
1 -218 0
1 -219 0
1 -220 0
1 -221 0
1 -222 0
1 -223 0
1 -224 0
1 -225 0
1 -226 0
1 -227 0
1 -228 0
1 -229 0
1 -230 0
1 -231 0
1 -232 0
1 -233 0
1 -234 0
1 -235 0
1 -236 0
1 -237 0
1 -238 0
1 -239 0
1 -240 0
1 -241 0
1 -242 0
1 -243 0
1 -244 0
1 -245 0
1 -246 0
1 -247 0
1 -248 0
1 -249 0
1 -250 0
1 -251 0
1 -252 0
1 -253 0
1 -254 0
1 -255 0
1 -256 0
1 -257 0
1 -258 0
1 -259 0
1 -260 0
1 -261 0
1 -262 0
1 -263 0
1 -264 0
1 -265 0
1 -266 0
1 -267 0
1 -268 0
1 -269 0
1 -270 0
260 -136 -288 -289 0
260 136 288 -289 0
260 -136 288 289 0
260 136 -288 289 0
260 -101 -107 -292 0
260 101 107 -292 0
260 101 -107 292 0
260 -101 107 292 0
260 -138 -298 -299 0
260 138 298 -299 0
260 -138 298 299 0
260 138 -298 299 0
260 -139 -303 -304 0
260 139 303 -304 0
260 -139 303 304 0
260 139 -303 304 0
260 -140 -308 -309 0
260 140 308 -309 0
260 -140 308 309 0
260 140 -308 309 0
260 -141 -313 -314 0
260 141 313 -314 0
260 -141 313 314 0
260 141 -313 314 0
260 -142 -318 -319 0
260 142 318 -319 0
260 -142 318 319 0
260 142 -318 319 0
260 -143 -323 -324 0
260 143 323 -324 0
260 -143 323 324 0
260 143 -323 324 0
260 -136 -328 -329 0
260 136 328 -329 0
260 -136 328 329 0
260 136 -328 329 0
260 -137 -333 -334 0
260 137 333 -334 0
260 -137 333 334 0
260 137 -333 334 0
260 -138 -338 -339 0
260 138 338 -339 0
260 -138 338 339 0
260 138 -338 339 0
260 -139 -343 -344 0
260 139 343 -344 0
260 -139 343 344 0
260 139 -343 344 0
260 -140 -348 -349 0
260 140 348 -349 0
260 -140 348 349 0
260 140 -348 349 0
260 -98 -119 -352 0
260 98 119 -352 0
260 98 -119 352 0
260 -98 119 352 0
260 -99 -120 -357 0
260 99 120 -357 0
260 99 -120 357 0
260 -99 120 357 0
260 -151 -363 -364 0
260 151 363 -364 0
260 -151 363 364 0
260 151 -363 364 0
260 -92 -116 -367 0
260 92 116 -367 0
260 92 -116 367 0
260 -92 116 367 0
260 -153 -373 -374 0
260 153 373 -374 0
260 -153 373 374 0
260 153 -373 374 0
260 -94 -118 -377 0
260 94 118 -377 0
260 94 -118 377 0
260 -94 118 377 0
260 -155 -383 -384 0
260 155 383 -384 0
260 -155 383 384 0
260 155 -383 384 0
260 -96 -120 -387 0
260 96 120 -387 0
260 96 -120 387 0
260 -96 120 387 0
260 -157 -393 -394 0
260 157 393 -394 0
260 -157 393 394 0
260 157 -393 394 0
260 -98 -107 -397 0
260 98 107 -397 0
260 98 -107 397 0
260 -98 107 397 0
260 -151 -403 -404 0
260 151 403 -404 0
260 -151 403 404 0
260 151 -403 404 0
260 -100 -109 -407 0
260 100 109 -407 0
260 100 -109 407 0
260 -100 109 407 0
260 -153 -413 -414 0
260 153 413 -414 0
260 -153 413 414 0
260 153 -413 414 0
260 -154 -418 -419 0
260 154 418 -419 0
260 -154 418 419 0
260 154 -418 419 0
260 -103 -112 -422 0
260 103 112 -422 0
260 103 -112 422 0
260 -103 112 422 0
260 -151 -428 -429 0
260 151 428 -429 0
260 -151 428 429 0
260 151 -428 429 0
260 -152 -433 -434 0
260 152 433 -434 0
260 -152 433 434 0
260 152 -433 434 0
260 -91 -106 -437 0
260 91 106 -437 0
260 91 -106 437 0
260 -91 106 437 0
260 -167 -443 -444 0
260 167 443 -444 0
260 -167 443 444 0
260 167 -443 444 0
260 -168 -448 -449 0
260 168 448 -449 0
260 -168 448 449 0
260 168 -448 449 0
260 -169 -453 -454 0
260 169 453 -454 0
260 -169 453 454 0
260 169 -453 454 0
260 -170 -458 -459 0
260 170 458 -459 0
260 -170 458 459 0
260 170 -458 459 0
260 -96 -111 -462 0
260 96 111 -462 0
260 96 -111 462 0
260 -96 111 462 0
260 -97 -112 -467 0
260 97 112 -467 0
260 97 -112 467 0
260 -97 112 467 0
260 -98 -113 -472 0
260 98 113 -472 0
260 98 -113 472 0
260 -98 113 472 0
260 -166 -478 -479 0
260 166 478 -479 0
260 -166 478 479 0
260 166 -478 479 0
260 -167 -483 -484 0
260 167 483 -484 0
260 -167 483 484 0
260 167 -483 484 0
260 -168 -488 -489 0
260 168 488 -489 0
260 -168 488 489 0
260 168 -488 489 0
260 -102 -117 -492 0
260 102 117 -492 0
260 102 -117 492 0
260 -102 117 492 0
260 -170 -498 -499 0
260 170 498 -499 0
260 -170 498 499 0
260 170 -498 499 0
260 -104 -119 -502 0
260 104 119 -502 0
260 104 -119 502 0
260 -104 119 502 0
260 -167 -508 -509 0
260 167 508 -509 0
260 -167 508 509 0
260 167 -508 509 0
260 -1 -9 -512 0
260 1 9 -512 0
260 1 -9 512 0
260 -1 9 512 0
260 -53 -518 -519 0
260 53 518 -519 0
260 -53 518 519 0
260 53 -518 519 0
260 -54 -523 -524 0
260 54 523 -524 0
260 -54 523 524 0
260 54 -523 524 0
260 -55 -528 -529 0
260 55 528 -529 0
260 -55 528 529 0
260 55 -528 529 0
260 -3 -5 -532 0
260 3 5 -532 0
260 3 -5 532 0
260 -3 5 532 0
260 -57 -538 -539 0
260 57 538 -539 0
260 -57 538 539 0
260 57 -538 539 0
260 -58 -543 -544 0
260 58 543 -544 0
260 -58 543 544 0
260 58 -543 544 0
260 -59 -548 -549 0
260 59 548 -549 0
260 -59 548 549 0
260 59 -548 549 0
260 -2 -7 -552 0
260 2 7 -552 0
260 2 -7 552 0
260 -2 7 552 0
260 -46 -558 -559 0
260 46 558 -559 0
260 -46 558 559 0
260 46 -558 559 0
260 -4 -9 -562 0
260 4 9 -562 0
260 4 -9 562 0
260 -4 9 562 0
260 -48 -568 -569 0
260 48 568 -569 0
260 -48 568 569 0
260 48 -568 569 0
260 -49 -573 -574 0
260 49 573 -574 0
260 -49 573 574 0
260 49 -573 574 0
260 -7 -12 -577 0
260 7 12 -577 0
260 7 -12 577 0
260 -7 12 577 0
260 -51 -583 -584 0
260 51 583 -584 0
260 -51 583 584 0
260 51 -583 584 0
260 -46 -588 -589 0
260 46 588 -589 0
260 -46 588 589 0
260 46 -588 589 0
260 -17 -25 -592 0
260 17 25 -592 0
260 17 -25 592 0
260 -17 25 592 0
260 -16 -18 -597 0
260 16 18 -597 0
260 16 -18 597 0
260 -16 18 597 0
260 -49 -603 -604 0
260 49 603 -604 0
260 -49 603 604 0
260 49 -603 604 0
260 -50 -608 -609 0
260 50 608 -609 0
260 -50 608 609 0
260 50 -608 609 0
260 -19 -21 -612 0
260 19 21 -612 0
260 19 -21 612 0
260 -19 21 612 0
260 -52 -618 -619 0
260 52 618 -619 0
260 -52 618 619 0
260 52 -618 619 0
260 -16 -21 -622 0
260 16 21 -622 0
260 16 -21 622 0
260 -16 21 622 0
260 -54 -628 -629 0
260 54 628 -629 0
260 -54 628 629 0
260 54 -628 629 0
260 -55 -633 -634 0
260 55 633 -634 0
260 -55 633 634 0
260 55 -633 634 0
260 -19 -24 -637 0
260 19 24 -637 0
260 19 -24 637 0
260 -19 24 637 0
260 -20 -25 -642 0
260 20 25 -642 0
260 20 -25 642 0
260 -20 25 642 0
260 -21 -26 -647 0
260 21 26 -647 0
260 21 -26 647 0
260 -21 26 647 0
260 -22 -27 -652 0
260 22 27 -652 0
260 22 -27 652 0
260 -22 27 652 0
260 -23 -28 -657 0
260 23 28 -657 0
260 23 -28 657 0
260 -23 28 657 0
260 -31 -39 -662 0
260 31 39 -662 0
260 31 -39 662 0
260 -31 39 662 0
260 -47 -668 -669 0
260 47 668 -669 0
260 -47 668 669 0
260 47 -668 669 0
260 -31 -33 -672 0
260 31 33 -672 0
260 31 -33 672 0
260 -31 33 672 0
260 -49 -678 -679 0
260 49 678 -679 0
260 -49 678 679 0
260 49 -678 679 0
260 -33 -35 -682 0
260 33 35 -682 0
260 33 -35 682 0
260 -33 35 682 0
260 -51 -688 -689 0
260 51 688 -689 0
260 -51 688 689 0
260 51 -688 689 0
260 -35 -37 -692 0
260 35 37 -692 0
260 35 -37 692 0
260 -35 37 692 0
260 -53 -698 -699 0
260 53 698 -699 0
260 -53 698 699 0
260 53 -698 699 0
260 -54 -703 -704 0
260 54 703 -704 0
260 -54 703 704 0
260 54 -703 704 0
260 -55 -708 -709 0
260 55 708 -709 0
260 -55 708 709 0
260 55 -708 709 0
260 -56 -713 -714 0
260 56 713 -714 0
260 -56 713 714 0
260 56 -713 714 0
260 -57 -718 -719 0
260 57 718 -719 0
260 -57 718 719 0
260 57 -718 719 0
260 -36 -41 -722 0
260 36 41 -722 0
260 36 -41 722 0
260 -36 41 722 0
260 -59 -728 -729 0
260 59 728 -729 0
260 -59 728 729 0
260 59 -728 729 0
260 -60 -733 -734 0
260 60 733 -734 0
260 -60 733 734 0
260 60 -733 734 0
260 1 2 3 4 5 6 7 8 9 10 11 12 13 14 15 16 17 18 19 20 21 22 23 24 25 26 27 28 29 30 31 32 33 34 35 36 37 38 39 40 41 42 43 44 45 46 47 48 49 50 51 52 53 54 55 56 57 58 59 60 61 62 63 64 65 66 67 68 69 70 71 72 73 74 75 76 77 78 79 80 81 82 83 84 85 86 87 88 89 90 91 92 93 94 95 96 97 98 99 100 101 102 103 104 105 106 107 108 109 110 111 112 113 114 115 116 117 118 119 120 121 122 123 124 125 126 127 128 129 130 131 132 133 134 135 136 137 138 139 140 141 142 143 144 145 146 147 148 149 150 151 152 153 154 155 156 157 158 159 160 161 162 163 164 165 166 167 168 169 170 171 172 173 174 175 176 177 178 179 180 0
260 -28 -744 -745 0
260 28 744 -745 0
260 -28 744 745 0
260 28 -744 745 0
260 -2 -5 -767 0
260 2 5 -767 0
260 2 -5 767 0
260 -2 5 767 0
260 -35 -771 -772 0
260 35 771 -772 0
260 -35 771 772 0
260 35 -771 772 0
260 -12 -794 -795 0
260 12 794 -795 0
260 -12 794 795 0
260 12 -794 795 0
260 -32 -799 -800 0
260 32 799 -800 0
260 -32 799 800 0
260 32 -799 800 0
260 -19 -810 -811 0
260 19 810 -811 0
260 -19 810 811 0
260 19 -810 811 0
260 -32 -815 -816 0
260 32 815 -816 0
260 -32 815 816 0
260 32 -815 816 0
260 -20 -826 -827 0
260 20 826 -827 0
260 -20 826 827 0
260 20 -826 827 0
260 -41 -831 -832 0
260 41 831 -832 0
260 -41 831 832 0
260 41 -831 832 0
260 -95 -838 -839 0
260 95 838 -839 0
260 -95 838 839 0
260 95 -838 839 0
260 -100 -841 -842 0
260 100 841 -842 0
260 -100 841 842 0
260 100 -841 842 0
260 -91 -93 -847 0
260 91 93 -847 0
260 91 -93 847 0
260 -91 93 847 0
260 -103 -853 -854 0
260 103 853 -854 0
260 -103 853 854 0
260 103 -853 854 0
260 -106 -107 -857 0
260 106 107 -857 0
260 106 -107 857 0
260 -106 107 857 0
260 -115 -861 -862 0
260 115 861 -862 0
260 -115 861 862 0
260 115 -861 862 0
260 -112 -886 -887 0
260 112 886 -887 0
260 -112 886 887 0
260 112 -886 887 0
260 -136 -891 -892 0
260 136 891 -892 0
260 -136 891 892 0
260 136 -891 892 0
260 -101 -898 -899 0
260 101 898 -899 0
260 -101 898 899 0
260 101 -898 899 0
260 -137 -905 -906 0
260 137 905 -906 0
260 -137 905 906 0
260 137 -905 906 0
260 -94 -95 -909 0
260 94 95 -909 0
260 94 -95 909 0
260 -94 95 909 0
260 -124 -915 -916 0
260 124 915 -916 0
260 -124 915 916 0
260 124 -915 916 0
260 -127 -918 -919 0
260 127 918 -919 0
260 -127 918 919 0
260 127 -918 919 0
260 -136 -923 -924 0
260 136 923 -924 0
260 -136 923 924 0
260 136 -923 924 0
260 -91 -92 -927 0
260 91 92 -927 0
260 91 -92 927 0
260 -91 92 927 0
260 -124 -933 -934 0
260 124 933 -934 0
260 -124 933 934 0
260 124 -933 934 0
260 1 91 -181 0
260 -1 181 0
260 -91 181 0
260 2 92 -182 0
260 -2 182 0
260 -92 182 0
260 3 93 -183 0
260 -3 183 0
260 -93 183 0
260 4 94 -184 0
260 -4 184 0
260 -94 184 0
260 5 95 -185 0
260 -5 185 0
260 -95 185 0
260 6 96 -186 0
260 -6 186 0
260 -96 186 0
260 7 97 -187 0
260 -7 187 0
260 -97 187 0
260 8 98 -188 0
260 -8 188 0
260 -98 188 0
260 9 99 -189 0
260 -9 189 0
260 -99 189 0
260 10 100 -190 0
260 -10 190 0
260 -100 190 0
260 11 101 -191 0
260 -11 191 0
260 -101 191 0
260 12 102 -192 0
260 -12 192 0
260 -102 192 0
260 13 103 -193 0
260 -13 193 0
260 -103 193 0
260 14 104 -194 0
260 -14 194 0
260 -104 194 0
260 15 105 -195 0
260 -15 195 0
260 -105 195 0
260 16 106 -196 0
260 -16 196 0
260 -106 196 0
260 17 107 -197 0
260 -17 197 0
260 -107 197 0
260 18 108 -198 0
260 -18 198 0
260 -108 198 0
260 19 109 -199 0
260 -19 199 0
260 -109 199 0
260 20 110 -200 0
260 -20 200 0
260 -110 200 0
260 21 111 -201 0
260 -21 201 0
260 -111 201 0
260 22 112 -202 0
260 -22 202 0
260 -112 202 0
260 23 113 -203 0
260 -23 203 0
260 -113 203 0
260 24 114 -204 0
260 -24 204 0
260 -114 204 0
260 25 115 -205 0
260 -25 205 0
260 -115 205 0
260 26 116 -206 0
260 -26 206 0
260 -116 206 0
260 27 117 -207 0
260 -27 207 0
260 -117 207 0
260 28 118 -208 0
260 -28 208 0
260 -118 208 0
260 29 119 -209 0
260 -29 209 0
260 -119 209 0
260 30 120 -210 0
260 -30 210 0
260 -120 210 0
260 31 121 -211 0
260 -31 211 0
260 -121 211 0
260 32 122 -212 0
260 -32 212 0
260 -122 212 0
260 33 123 -213 0
260 -33 213 0
260 -123 213 0
260 34 124 -214 0
260 -34 214 0
260 -124 214 0
260 35 125 -215 0
260 -35 215 0
260 -125 215 0
260 36 126 -216 0
260 -36 216 0
260 -126 216 0
260 37 127 -217 0
260 -37 217 0
260 -127 217 0
260 38 128 -218 0
260 -38 218 0
260 -128 218 0
260 39 129 -219 0
260 -39 219 0
260 -129 219 0
260 40 130 -220 0
260 -40 220 0
260 -130 220 0
260 41 131 -221 0
260 -41 221 0
260 -131 221 0
260 42 132 -222 0
260 -42 222 0
260 -132 222 0
260 43 133 -223 0
260 -43 223 0
260 -133 223 0
260 44 134 -224 0
260 -44 224 0
260 -134 224 0
260 45 135 -225 0
260 -45 225 0
260 -135 225 0
260 46 136 -226 0
260 -46 226 0
260 -136 226 0
260 47 137 -227 0
260 -47 227 0
260 -137 227 0
260 48 138 -228 0
260 -48 228 0
260 -138 228 0
260 49 139 -229 0
260 -49 229 0
260 -139 229 0
260 50 140 -230 0
260 -50 230 0
260 -140 230 0
260 51 141 -231 0
260 -51 231 0
260 -141 231 0
260 52 142 -232 0
260 -52 232 0
260 -142 232 0
260 53 143 -233 0
260 -53 233 0
260 -143 233 0
260 54 144 -234 0
260 -54 234 0
260 -144 234 0
260 55 145 -235 0
260 -55 235 0
260 -145 235 0
260 56 146 -236 0
260 -56 236 0
260 -146 236 0
260 57 147 -237 0
260 -57 237 0
260 -147 237 0
260 58 148 -238 0
260 -58 238 0
260 -148 238 0
260 59 149 -239 0
260 -59 239 0
260 -149 239 0
260 60 150 -240 0
260 -60 240 0
260 -150 240 0
260 61 151 -241 0
260 -61 241 0
260 -151 241 0
260 62 152 -242 0
260 -62 242 0
260 -152 242 0
260 63 153 -243 0
260 -63 243 0
260 -153 243 0
260 64 154 -244 0
260 -64 244 0
260 -154 244 0
260 65 155 -245 0
260 -65 245 0
260 -155 245 0
260 66 156 -246 0
260 -66 246 0
260 -156 246 0
260 67 157 -247 0
260 -67 247 0
260 -157 247 0
260 68 158 -248 0
260 -68 248 0
260 -158 248 0
260 69 159 -249 0
260 -69 249 0
260 -159 249 0
260 70 160 -250 0
260 -70 250 0
260 -160 250 0
260 71 161 -251 0
260 -71 251 0
260 -161 251 0
260 72 162 -252 0
260 -72 252 0
260 -162 252 0
260 73 163 -253 0
260 -73 253 0
260 -163 253 0
260 74 164 -254 0
260 -74 254 0
260 -164 254 0
260 75 165 -255 0
260 -75 255 0
260 -165 255 0
260 76 166 -256 0
260 -76 256 0
260 -166 256 0
260 77 167 -257 0
260 -77 257 0
260 -167 257 0
260 78 168 -258 0
260 -78 258 0
260 -168 258 0
260 79 169 -259 0
260 -79 259 0
260 -169 259 0
260 80 170 -260 0
260 -80 260 0
260 -170 260 0
260 81 171 -261 0
260 -81 261 0
260 -171 261 0
260 82 172 -262 0
260 -82 262 0
260 -172 262 0
260 83 173 -263 0
260 -83 263 0
260 -173 263 0
260 84 174 -264 0
260 -84 264 0
260 -174 264 0
260 85 175 -265 0
260 -85 265 0
260 -175 265 0
260 86 176 -266 0
260 -86 266 0
260 -176 266 0
260 87 177 -267 0
260 -87 267 0
260 -177 267 0
260 88 178 -268 0
260 -88 268 0
260 -178 268 0
260 89 179 -269 0
260 -89 269 0
260 -179 269 0
260 90 180 -270 0
260 -90 270 0
260 -180 270 0
260 272 273 274 275 276 277 278 279 280 281 282 283 284 285 286 745 0
260 -174 179 469 0
260 174 179 -469 0
260 -174 -179 -469 0
260 174 -179 469 0
260 -61 76 514 0
260 61 76 -514 0
260 -61 -76 -514 0
260 61 -76 514 0
260 -62 77 519 0
260 62 77 -519 0
260 -62 -77 -519 0
260 62 -77 519 0
260 -63 78 524 0
260 63 78 -524 0
260 -63 -78 -524 0
260 63 -78 524 0
260 -64 79 529 0
260 64 79 -529 0
260 -64 -79 -529 0
260 64 -79 529 0
260 -65 80 534 0
260 65 80 -534 0
260 -65 -80 -534 0
260 65 -80 534 0
260 -66 81 539 0
260 66 81 -539 0
260 -66 -81 -539 0
260 66 -81 539 0
260 -67 82 544 0
260 67 82 -544 0
260 -67 -82 -544 0
260 67 -82 544 0
260 -68 83 549 0
260 68 83 -549 0
260 -68 -83 -549 0
260 68 -83 549 0
260 -69 84 554 0
260 69 84 -554 0
260 -69 -84 -554 0
260 69 -84 554 0
260 -70 85 559 0
260 70 85 -559 0
260 -70 -85 -559 0
260 70 -85 559 0
260 -71 86 564 0
260 71 86 -564 0
260 -71 -86 -564 0
260 71 -86 564 0
260 -72 87 569 0
260 72 87 -569 0
260 -72 -87 -569 0
260 72 -87 569 0
260 -73 88 574 0
260 73 88 -574 0
260 -73 -88 -574 0
260 73 -88 574 0
260 -74 89 579 0
260 74 89 -579 0
260 -74 -89 -579 0
260 74 -89 579 0
260 -138 143 289 0
260 138 143 -289 0
260 -138 -143 -289 0
260 138 -143 289 0
260 -75 90 584 0
260 75 90 -584 0
260 -75 -90 -584 0
260 75 -90 584 0
260 -139 144 294 0
260 139 144 -294 0
260 -139 -144 -294 0
260 139 -144 294 0
260 -67 76 589 0
260 67 76 -589 0
260 -67 -76 -589 0
260 67 -76 589 0
260 -68 77 594 0
260 68 77 -594 0
260 -68 -77 -594 0
260 68 -77 594 0
260 -140 145 299 0
260 140 145 -299 0
260 -140 -145 -299 0
260 140 -145 299 0
260 -69 78 599 0
260 69 78 -599 0
260 -69 -78 -599 0
260 69 -78 599 0
260 -70 79 604 0
260 70 79 -604 0
260 -70 -79 -604 0
260 70 -79 604 0
260 -141 146 304 0
260 141 146 -304 0
260 -141 -146 -304 0
260 141 -146 304 0
260 -71 80 609 0
260 71 80 -609 0
260 -71 -80 -609 0
260 71 -80 609 0
260 -72 81 614 0
260 72 81 -614 0
260 -72 -81 -614 0
260 72 -81 614 0
260 -142 147 309 0
260 142 147 -309 0
260 -142 -147 -309 0
260 142 -147 309 0
260 -73 82 619 0
260 73 82 -619 0
260 -73 -82 -619 0
260 73 -82 619 0
260 -74 83 624 0
260 74 83 -624 0
260 -74 -83 -624 0
260 74 -83 624 0
260 -143 148 314 0
260 143 148 -314 0
260 -143 -148 -314 0
260 143 -148 314 0
260 -75 84 629 0
260 75 84 -629 0
260 -75 -84 -629 0
260 75 -84 629 0
260 -61 85 634 0
260 61 85 -634 0
260 -61 -85 -634 0
260 61 -85 634 0
260 -144 149 319 0
260 144 149 -319 0
260 -144 -149 -319 0
260 144 -149 319 0
260 -62 86 639 0
260 62 86 -639 0
260 -62 -86 -639 0
260 62 -86 639 0
260 -63 87 644 0
260 63 87 -644 0
260 -63 -87 -644 0
260 63 -87 644 0
260 -145 150 324 0
260 145 150 -324 0
260 -145 -150 -324 0
260 145 -150 324 0
260 -64 88 649 0
260 64 88 -649 0
260 -64 -88 -649 0
260 64 -88 649 0
260 -144 146 329 0
260 144 146 -329 0
260 -144 -146 -329 0
260 144 -146 329 0
260 -65 89 654 0
260 65 89 -654 0
260 -65 -89 -654 0
260 65 -89 654 0
260 -66 90 659 0
260 66 90 -659 0
260 -66 -90 -659 0
260 66 -90 659 0
260 -61 82 664 0
260 61 82 -664 0
260 -61 -82 -664 0
260 61 -82 664 0
260 -62 83 669 0
260 62 83 -669 0
260 -62 -83 -669 0
260 62 -83 669 0
260 -145 147 334 0
260 145 147 -334 0
260 -145 -147 -334 0
260 145 -147 334 0
260 -146 148 339 0
260 146 148 -339 0
260 -146 -148 -339 0
260 146 -148 339 0
260 -63 84 674 0
260 63 84 -674 0
260 -63 -84 -674 0
260 63 -84 674 0
260 -64 85 679 0
260 64 85 -679 0
260 -64 -85 -679 0
260 64 -85 679 0
260 -65 86 684 0
260 65 86 -684 0
260 -65 -86 -684 0
260 65 -86 684 0
260 -66 87 689 0
260 66 87 -689 0
260 -66 -87 -689 0
260 66 -87 689 0
260 -147 149 344 0
260 147 149 -344 0
260 -147 -149 -344 0
260 147 -149 344 0
260 -67 88 694 0
260 67 88 -694 0
260 -67 -88 -694 0
260 67 -88 694 0
260 -68 89 699 0
260 68 89 -699 0
260 -68 -89 -699 0
260 68 -89 699 0
260 -148 150 349 0
260 148 150 -349 0
260 -148 -150 -349 0
260 148 -150 349 0
260 -69 90 704 0
260 69 90 -704 0
260 -69 -90 -704 0
260 69 -90 704 0
260 -141 149 354 0
260 141 149 -354 0
260 -141 -149 -354 0
260 141 -149 354 0
260 -70 76 709 0
260 70 76 -709 0
260 -70 -76 -709 0
260 70 -76 709 0
260 -151 283 892 0
260 151 283 -892 0
260 -151 -283 -892 0
260 151 -283 892 0
260 -71 77 714 0
260 71 77 -714 0
260 -71 -77 -714 0
260 71 -77 714 0
260 -142 150 359 0
260 142 150 -359 0
260 -142 -150 -359 0
260 142 -150 359 0
260 -72 78 719 0
260 72 78 -719 0
260 -72 -78 -719 0
260 72 -78 719 0
260 -73 79 724 0
260 73 79 -724 0
260 -73 -79 -724 0
260 73 -79 724 0
260 -75 81 734 0
260 75 81 -734 0
260 -75 -81 -734 0
260 75 -81 734 0
260 -153 158 364 0
260 153 158 -364 0
260 -153 -158 -364 0
260 153 -158 364 0
260 -74 80 729 0
260 74 80 -729 0
260 -74 -80 -729 0
260 74 -80 729 0
260 -154 159 369 0
260 154 159 -369 0
260 -154 -159 -369 0
260 154 -159 369 0
260 -155 160 374 0
260 155 160 -374 0
260 -155 -160 -374 0
260 155 -160 374 0
260 -29 272 754 0
260 29 272 -754 0
260 -29 -272 -754 0
260 29 -272 754 0
260 -156 161 379 0
260 156 161 -379 0
260 -156 -161 -379 0
260 156 -161 379 0
260 -43 273 764 0
260 43 273 -764 0
260 -43 -273 -764 0
260 43 -273 764 0
260 -157 162 384 0
260 157 162 -384 0
260 -157 -162 -384 0
260 157 -162 384 0
260 -44 274 774 0
260 44 274 -774 0
260 -44 -274 -774 0
260 44 -274 774 0
260 -158 163 389 0
260 158 163 -389 0
260 -158 -163 -389 0
260 158 -163 389 0
260 -159 164 394 0
260 159 164 -394 0
260 -159 -164 -394 0
260 159 -164 394 0
260 -47 275 790 0
260 47 275 -790 0
260 -47 -275 -790 0
260 47 -275 790 0
260 -160 165 399 0
260 160 165 -399 0
260 -160 -165 -399 0
260 160 -165 399 0
260 -48 276 804 0
260 48 276 -804 0
260 -48 -276 -804 0
260 48 -276 804 0
260 -159 161 404 0
260 159 161 -404 0
260 -159 -161 -404 0
260 159 -161 404 0
260 -160 162 409 0
260 160 162 -409 0
260 -160 -162 -409 0
260 160 -162 409 0
260 -62 277 820 0
260 62 277 -820 0
260 -62 -277 -820 0
260 62 -277 820 0
260 -161 163 414 0
260 161 163 -414 0
260 -161 -163 -414 0
260 161 -163 414 0
260 -63 278 834 0
260 63 278 -834 0
260 -63 -278 -834 0
260 63 -278 834 0
260 -162 164 419 0
260 162 164 -419 0
260 -162 -164 -419 0
260 162 -164 419 0
260 -104 279 844 0
260 104 279 -844 0
260 -104 -279 -844 0
260 104 -279 844 0
260 -163 165 424 0
260 163 165 -424 0
260 -163 -165 -424 0
260 163 -165 424 0
260 -105 280 854 0
260 105 280 -854 0
260 -105 -280 -854 0
260 105 -280 854 0
260 -156 164 429 0
260 156 164 -429 0
260 -156 -164 -429 0
260 156 -164 429 0
260 -119 281 864 0
260 119 281 -864 0
260 -119 -281 -864 0
260 119 -281 864 0
260 -157 165 434 0
260 157 165 -434 0
260 -157 -165 -434 0
260 157 -165 434 0
260 -120 282 874 0
260 120 282 -874 0
260 -120 -282 -874 0
260 120 -282 874 0
260 -168 173 439 0
260 168 173 -439 0
260 -168 -173 -439 0
260 168 -173 439 0
260 -169 174 444 0
260 169 174 -444 0
260 -169 -174 -444 0
260 169 -174 444 0
260 -170 175 449 0
260 170 175 -449 0
260 -170 -175 -449 0
260 170 -175 449 0
260 -171 176 454 0
260 171 176 -454 0
260 -171 -176 -454 0
260 171 -176 454 0
260 -152 284 906 0
260 152 284 -906 0
260 -152 -284 -906 0
260 152 -284 906 0
260 -172 177 459 0
260 172 177 -459 0
260 -172 -177 -459 0
260 172 -177 459 0
260 -166 285 924 0
260 166 285 -924 0
260 -166 -285 -924 0
260 166 -285 924 0
260 -173 178 464 0
260 173 178 -464 0
260 -173 -178 -464 0
260 173 -178 464 0
260 -167 286 938 0
260 167 286 -938 0
260 -167 -286 -938 0
260 167 -286 938 0
260 -175 180 474 0
260 175 180 -474 0
260 -175 -180 -474 0
260 175 -180 474 0
260 -174 176 479 0
260 174 176 -479 0
260 -174 -176 -479 0
260 174 -176 479 0
260 -175 177 484 0
260 175 177 -484 0
260 -175 -177 -484 0
260 175 -177 484 0
260 -176 178 489 0
260 176 178 -489 0
260 -176 -178 -489 0
260 176 -178 489 0
260 -177 179 494 0
260 177 179 -494 0
260 -177 -179 -494 0
260 177 -179 494 0
260 -178 180 499 0
260 178 180 -499 0
260 -178 -180 -499 0
260 178 -180 499 0
260 -171 179 504 0
260 171 179 -504 0
260 -171 -179 -504 0
260 171 -179 504 0
260 -172 180 509 0
260 172 180 -509 0
260 -172 -180 -509 0
260 172 -180 509 0
260 -135 -137 357 -359 0
260 -135 137 357 359 0
260 135 -137 -357 -359 0
260 135 137 -357 359 0
260 -135 137 -357 -359 0
260 135 137 357 -359 0
260 -135 -137 -357 359 0
260 135 -137 357 359 0
260 91 -115 -121 -363 0
260 91 -115 121 363 0
260 -91 115 -121 -363 0
260 -91 115 121 363 0
260 -91 -115 121 -363 0
260 91 115 121 -363 0
260 -91 -115 -121 363 0
260 91 115 -121 363 0
260 37 -42 -44 -728 0
260 37 -42 44 728 0
260 -37 42 -44 -728 0
260 -37 42 44 728 0
260 -37 -42 44 -728 0
260 37 42 44 -728 0
260 -37 -42 -44 728 0
260 37 42 -44 728 0
260 20 -22 -30 -618 0
260 20 -22 30 618 0
260 -20 22 -30 -618 0
260 -20 22 30 618 0
260 -20 -22 30 -618 0
260 20 22 30 -618 0
260 -20 -22 -30 618 0
260 20 22 -30 618 0
260 101 -110 -131 -413 0
260 101 -110 131 413 0
260 -101 110 -131 -413 0
260 -101 110 131 413 0
260 -101 -110 131 -413 0
260 101 110 131 -413 0
260 -101 -110 -131 413 0
260 101 110 -131 413 0
260 -42 -61 832 -834 0
260 -42 61 832 834 0
260 42 -61 -832 -834 0
260 42 61 -832 834 0
260 -42 61 -832 -834 0
260 42 61 832 -834 0
260 -42 -61 -832 834 0
260 42 -61 832 834 0
260 -29 -51 612 -614 0
260 -29 51 612 614 0
260 29 -51 -612 -614 0
260 29 51 -612 614 0
260 -29 51 -612 -614 0
260 29 51 612 -614 0
260 -29 -51 -612 614 0
260 29 -51 612 614 0
260 -14 -52 512 -514 0
260 -14 52 512 514 0
260 14 -52 -512 -514 0
260 14 52 -512 514 0
260 -14 52 -512 -514 0
260 14 52 512 -514 0
260 -14 -52 -512 514 0
260 14 -52 512 514 0
260 2 -10 -15 -518 0
260 2 -10 15 518 0
260 -2 10 -15 -518 0
260 -2 10 15 518 0
260 -2 -10 15 -518 0
260 2 10 15 -518 0
260 -2 -10 -15 518 0
260 2 10 -15 518 0
260 -117 -118 872 -874 0
260 -117 118 872 874 0
260 117 -118 -872 -874 0
260 117 118 -872 874 0
260 -117 118 -872 -874 0
260 117 118 872 -874 0
260 -117 -118 -872 874 0
260 117 -118 872 874 0
260 1 -3 -11 -523 0
260 1 -3 11 523 0
260 -1 3 -11 -523 0
260 -1 3 11 523 0
260 -1 -3 11 -523 0
260 1 3 11 -523 0
260 -1 -3 -11 523 0
260 1 3 -11 523 0
260 -94 -96 927 -929 0
260 -94 96 927 929 0
260 94 -96 -927 -929 0
260 94 96 -927 929 0
260 -94 96 -927 -929 0
260 94 96 927 -929 0
260 -94 -96 -927 929 0
260 94 -96 927 929 0
260 2 -4 -12 -528 0
260 2 -4 12 528 0
260 -2 4 -12 -528 0
260 -2 4 12 528 0
260 -2 -4 12 -528 0
260 2 4 12 -528 0
260 -2 -4 -12 528 0
260 2 4 -12 528 0
260 17 -19 -27 -603 0
260 17 -19 27 603 0
260 -17 19 -27 -603 0
260 -17 19 27 603 0
260 -17 -19 27 -603 0
260 17 19 27 -603 0
260 -17 -19 -27 603 0
260 17 19 -27 603 0
260 -12 -18 824 -826 0
260 -12 18 824 826 0
260 12 -18 -824 -826 0
260 12 18 -824 826 0
260 -12 18 -824 -826 0
260 12 18 824 -826 0
260 -12 -18 -824 826 0
260 12 -18 824 826 0
260 -13 -56 532 -534 0
260 -13 56 532 534 0
260 13 -56 -532 -534 0
260 13 56 -532 534 0
260 -13 56 -532 -534 0
260 13 56 532 -534 0
260 -13 -56 -532 534 0
260 13 -56 532 534 0
260 102 -111 -132 -418 0
260 102 -111 132 418 0
260 -102 111 -132 -418 0
260 -102 111 132 418 0
260 -102 -111 132 -418 0
260 102 111 132 -418 0
260 -102 -111 -132 418 0
260 102 111 -132 418 0
260 102 -108 -123 -298 0
260 102 -108 123 298 0
260 -102 108 -123 -298 0
260 -102 108 123 298 0
260 -102 -108 123 -298 0
260 102 108 123 -298 0
260 -102 -108 -123 298 0
260 102 108 -123 298 0
260 -113 -114 887 -889 0
260 -113 114 887 889 0
260 113 -114 -887 -889 0
260 113 114 -887 889 0
260 -113 114 -887 -889 0
260 113 114 887 -889 0
260 -113 -114 -887 889 0
260 113 -114 887 889 0
260 -32 -35 829 -831 0
260 -32 35 829 831 0
260 32 -35 -829 -831 0
260 32 35 -829 831 0
260 -32 35 -829 -831 0
260 32 35 829 -831 0
260 -32 -35 -829 831 0
260 32 -35 829 831 0
260 -121 -172 467 -469 0
260 -121 172 467 469 0
260 121 -172 -467 -469 0
260 121 172 -467 469 0
260 -121 172 -467 -469 0
260 121 172 467 -469 0
260 -121 -172 -467 469 0
260 121 -172 467 469 0
260 -122 -137 292 -294 0
260 -122 137 292 294 0
260 122 -137 -292 -294 0
260 122 137 -292 294 0
260 -122 137 -292 -294 0
260 122 137 292 -294 0
260 -122 -137 -292 294 0
260 122 -137 292 294 0
260 4 -6 -14 -538 0
260 4 -6 14 538 0
260 -4 6 -14 -538 0
260 -4 6 14 538 0
260 -4 -6 14 -538 0
260 4 6 14 -538 0
260 -4 -6 -14 538 0
260 4 6 -14 538 0
260 -23 -27 827 -829 0
260 -23 27 827 829 0
260 23 -27 -827 -829 0
260 23 27 -827 829 0
260 -23 27 -827 -829 0
260 23 27 827 -829 0
260 -23 -27 -827 829 0
260 23 -27 827 829 0
260 -131 -137 936 -938 0
260 -131 137 936 938 0
260 131 -137 -936 -938 0
260 131 137 -936 938 0
260 -131 137 -936 -938 0
260 131 137 936 -938 0
260 -131 -137 -936 938 0
260 131 -137 936 938 0
260 5 -7 -15 -543 0
260 5 -7 15 543 0
260 -5 7 -15 -543 0
260 -5 7 15 543 0
260 -5 -7 15 -543 0
260 5 7 15 -543 0
260 -5 -7 -15 543 0
260 5 7 -15 543 0
260 -14 -50 577 -579 0
260 -14 50 577 579 0
260 14 -50 -577 -579 0
260 14 50 -577 579 0
260 -14 50 -577 -579 0
260 14 50 577 -579 0
260 -14 -50 -577 579 0
260 14 -50 577 579 0
260 -11 -18 808 -810 0
260 -11 18 808 810 0
260 11 -18 -808 -810 0
260 11 18 -808 810 0
260 -11 18 -808 -810 0
260 11 18 808 -810 0
260 -11 -18 -808 810 0
260 11 -18 808 810 0
260 1 -6 -8 -548 0
260 1 -6 8 548 0
260 -1 6 -8 -548 0
260 -1 6 8 548 0
260 -1 -6 8 -548 0
260 1 6 8 -548 0
260 -1 -6 -8 548 0
260 1 6 -8 548 0
260 100 -106 -121 -288 0
260 100 -106 121 288 0
260 -100 106 -121 -288 0
260 -100 106 121 288 0
260 -100 -106 121 -288 0
260 100 106 121 -288 0
260 -100 -106 -121 288 0
260 100 106 -121 288 0
260 6 -11 -13 -573 0
260 6 -11 13 573 0
260 -6 11 -13 -573 0
260 -6 11 13 573 0
260 -6 -11 13 -573 0
260 6 11 13 -573 0
260 -6 -11 -13 573 0
260 6 11 -13 573 0
260 -33 -34 816 -818 0
260 -33 34 816 818 0
260 33 -34 -816 -818 0
260 33 34 -816 818 0
260 -33 34 -816 -818 0
260 33 34 816 -818 0
260 -33 -34 -816 818 0
260 33 -34 816 818 0
260 2 -5 -11 -824 0
260 2 -5 11 824 0
260 -2 5 -11 -824 0
260 -2 5 11 824 0
260 -2 -5 11 -824 0
260 2 5 11 -824 0
260 -2 -5 -11 824 0
260 2 5 -11 824 0
260 -9 -60 552 -554 0
260 -9 60 552 554 0
260 9 -60 -552 -554 0
260 9 60 -552 554 0
260 -9 60 -552 -554 0
260 9 60 552 -554 0
260 -9 -60 -552 554 0
260 9 -60 552 554 0
260 5 -10 -12 -568 0
260 5 -10 12 568 0
260 -5 10 -12 -568 0
260 -5 10 12 568 0
260 -5 -10 12 -568 0
260 5 10 12 -568 0
260 -5 -10 -12 568 0
260 5 10 -12 568 0
260 -121 -122 931 -933 0
260 -121 122 931 933 0
260 121 -122 -931 -933 0
260 121 122 -931 933 0
260 -121 122 -931 -933 0
260 121 122 931 -933 0
260 -121 -122 -931 933 0
260 121 -122 931 933 0
260 -111 -112 868 -870 0
260 -111 112 868 870 0
260 111 -112 -868 -870 0
260 111 112 -868 870 0
260 -111 112 -868 -870 0
260 111 112 868 -870 0
260 -111 -112 -868 870 0
260 111 -112 868 870 0
260 3 -8 -10 -558 0
260 3 -8 10 558 0
260 -3 8 -10 -558 0
260 -3 8 10 558 0
260 -3 -8 10 -558 0
260 3 8 10 -558 0
260 -3 -8 -10 558 0
260 3 8 -10 558 0
260 35 -40 -42 -718 0
260 35 -40 42 718 0
260 -35 40 -42 -718 0
260 -35 40 42 718 0
260 -35 -40 42 -718 0
260 35 40 42 -718 0
260 -35 -40 -42 718 0
260 35 40 -42 718 0
260 -11 -47 562 -564 0
260 -11 47 562 564 0
260 11 -47 -562 -564 0
260 11 47 -562 564 0
260 -11 47 -562 -564 0
260 11 47 562 -564 0
260 -11 -47 -562 564 0
260 11 -47 562 564 0
260 -130 -152 407 -409 0
260 -130 152 407 409 0
260 130 -152 -407 -409 0
260 130 152 -407 409 0
260 -130 152 -407 -409 0
260 130 152 407 -409 0
260 -130 -152 -407 409 0
260 130 -152 407 409 0
260 -23 -24 811 -813 0
260 -23 24 811 813 0
260 23 -24 -811 -813 0
260 23 24 -811 813 0
260 -23 24 -811 -813 0
260 23 24 811 -813 0
260 -23 -24 -811 813 0
260 23 -24 811 813 0
260 -25 -26 813 -815 0
260 -25 26 813 815 0
260 25 -26 -813 -815 0
260 25 26 -813 815 0
260 -25 26 -813 -815 0
260 25 26 813 -815 0
260 -25 -26 -813 815 0
260 25 -26 813 815 0
260 -43 -50 682 -684 0
260 -43 50 682 684 0
260 43 -50 -682 -684 0
260 43 50 -682 684 0
260 -43 50 -682 -684 0
260 43 50 682 -684 0
260 -43 -50 -682 684 0
260 43 -50 682 684 0
260 -132 -133 921 -923 0
260 -132 133 921 923 0
260 132 -133 -921 -923 0
260 132 133 -921 923 0
260 -132 133 -921 -923 0
260 132 133 921 -923 0
260 -132 -133 -921 923 0
260 132 -133 921 923 0
260 8 -13 -15 -583 0
260 8 -13 15 583 0
260 -8 13 -15 -583 0
260 -8 13 15 583 0
260 -8 -13 15 -583 0
260 8 13 15 -583 0
260 -8 -13 -15 583 0
260 8 13 -15 583 0
260 34 -39 -41 -713 0
260 34 -39 41 713 0
260 -34 39 -41 -713 0
260 -34 39 41 713 0
260 -34 -39 41 -713 0
260 34 39 41 -713 0
260 -34 -39 -41 713 0
260 34 39 -41 713 0
260 16 -24 -29 -588 0
260 16 -24 29 588 0
260 -16 24 -29 -588 0
260 -16 24 29 588 0
260 -16 -24 29 -588 0
260 16 24 29 -588 0
260 -16 -24 -29 588 0
260 16 24 -29 588 0
260 -98 -99 911 -913 0
260 -98 99 911 913 0
260 98 -99 -911 -913 0
260 98 99 -911 913 0
260 -98 99 -911 -913 0
260 98 99 911 -913 0
260 -98 -99 -911 913 0
260 98 -99 911 913 0
260 -26 -48 597 -599 0
260 -26 48 597 599 0
260 26 -48 -597 -599 0
260 26 48 -597 599 0
260 -26 48 -597 -599 0
260 26 48 597 -599 0
260 -26 -48 -597 599 0
260 26 -48 597 599 0
260 -30 -47 592 -594 0
260 -30 47 592 594 0
260 30 -47 -592 -594 0
260 30 47 -592 594 0
260 -30 47 -592 -594 0
260 30 47 592 -594 0
260 -30 -47 -592 594 0
260 30 -47 592 594 0
260 -135 -171 462 -464 0
260 -135 171 462 464 0
260 135 -171 -462 -464 0
260 135 171 -462 464 0
260 -135 171 -462 -464 0
260 135 171 462 -464 0
260 -135 -171 -462 464 0
260 135 -171 462 464 0
260 18 -20 -28 -608 0
260 18 -20 28 608 0
260 -18 20 -28 -608 0
260 -18 20 28 608 0
260 -18 -20 28 -608 0
260 18 20 28 -608 0
260 -18 -20 -28 608 0
260 18 20 -28 608 0
260 103 -109 -124 -303 0
260 103 -109 124 303 0
260 -103 109 -124 -303 0
260 -103 109 124 303 0
260 -103 -109 124 -303 0
260 103 109 124 -303 0
260 -103 -109 -124 303 0
260 103 109 -124 303 0
260 -134 -136 352 -354 0
260 -134 136 352 354 0
260 134 -136 -352 -354 0
260 134 136 -352 354 0
260 -134 136 -352 -354 0
260 134 136 352 -354 0
260 -134 -136 -352 354 0
260 134 -136 352 354 0
260 95 -110 -134 -458 0
260 95 -110 134 458 0
260 -95 110 -134 -458 0
260 -95 110 134 458 0
260 -95 -110 134 -458 0
260 95 110 134 -458 0
260 -95 -110 -134 458 0
260 95 110 -134 458 0
260 -23 -53 622 -624 0
260 -23 53 622 624 0
260 23 -53 -622 -624 0
260 23 53 -622 624 0
260 -23 53 -622 -624 0
260 23 53 622 -624 0
260 -23 -53 -622 624 0
260 23 -53 622 624 0
260 104 -110 -125 -308 0
260 104 -110 125 308 0
260 -104 110 -125 -308 0
260 -104 110 125 308 0
260 -104 -110 125 -308 0
260 104 110 125 -308 0
260 -104 -110 -125 308 0
260 104 110 -125 308 0
260 -125 -126 916 -918 0
260 -125 126 916 918 0
260 125 -126 -916 -918 0
260 125 126 -916 918 0
260 -125 126 -916 -918 0
260 125 126 916 -918 0
260 -125 -126 -916 918 0
260 125 -126 916 918 0
260 -128 -129 919 -921 0
260 -128 129 919 921 0
260 128 -129 -919 -921 0
260 128 129 -919 921 0
260 -128 129 -919 -921 0
260 128 129 919 -921 0
260 -128 -129 -919 921 0
260 128 -129 919 921 0
260 -96 -99 896 -898 0
260 -96 99 896 898 0
260 96 -99 -896 -898 0
260 96 99 -896 898 0
260 -96 99 -896 -898 0
260 96 99 896 -898 0
260 -96 -99 -896 898 0
260 96 -99 896 898 0
260 105 -111 -126 -313 0
260 105 -111 126 313 0
260 -105 111 -126 -313 0
260 -105 111 126 313 0
260 -105 -111 126 -313 0
260 105 111 126 -313 0
260 -105 -111 -126 313 0
260 105 111 -126 313 0
260 17 -22 -24 -628 0
260 17 -22 24 628 0
260 -17 22 -24 -628 0
260 -17 22 24 628 0
260 -17 -22 24 -628 0
260 17 22 24 -628 0
260 -17 -22 -24 628 0
260 17 22 -24 628 0
260 18 -23 -25 -633 0
260 18 -23 25 633 0
260 -18 23 -25 -633 0
260 -18 23 25 633 0
260 -18 -23 25 -633 0
260 18 23 25 -633 0
260 -18 -23 -25 633 0
260 18 23 -25 633 0
260 91 -112 -127 -318 0
260 91 -112 127 318 0
260 -91 112 -127 -318 0
260 -91 112 127 318 0
260 -91 -112 127 -318 0
260 91 112 127 -318 0
260 -91 -112 -127 318 0
260 91 112 -127 318 0
260 -26 -56 637 -639 0
260 -26 56 637 639 0
260 26 -56 -637 -639 0
260 26 56 -637 639 0
260 -26 56 -637 -639 0
260 26 56 637 -639 0
260 -26 -56 -637 639 0
260 26 -56 637 639 0
260 32 -34 -42 -678 0
260 32 -34 42 678 0
260 -32 34 -42 -678 0
260 -32 34 42 678 0
260 -32 -34 42 -678 0
260 32 34 42 -678 0
260 -32 -34 -42 678 0
260 32 34 -42 678 0
260 -130 -166 437 -439 0
260 -130 166 437 439 0
260 130 -166 -437 -439 0
260 130 166 -437 439 0
260 -130 166 -437 -439 0
260 130 166 437 -439 0
260 -130 -166 -437 439 0
260 130 -166 437 439 0
260 -27 -57 642 -644 0
260 -27 57 642 644 0
260 27 -57 -642 -644 0
260 27 57 -642 644 0
260 -27 57 -642 -644 0
260 27 57 642 -644 0
260 -27 -57 -642 644 0
260 27 -57 642 644 0
260 92 -113 -128 -323 0
260 92 -113 128 323 0
260 -92 113 -128 -323 0
260 -92 113 128 323 0
260 -92 -113 128 -323 0
260 92 113 128 -323 0
260 -92 -113 -128 323 0
260 92 113 -128 323 0
260 -28 -58 647 -649 0
260 -28 58 647 649 0
260 28 -58 -647 -649 0
260 28 58 -647 649 0
260 -28 58 -647 -649 0
260 28 58 647 -649 0
260 -28 -58 -647 649 0
260 28 -58 647 649 0
260 -29 -59 652 -654 0
260 -29 59 652 654 0
260 29 -59 -652 -654 0
260 29 59 -652 654 0
260 -29 59 -652 -654 0
260 29 59 652 -654 0
260 -29 -59 -652 654 0
260 29 -59 652 654 0
260 -96 -97 909 -911 0
260 -96 97 909 911 0
260 96 -97 -909 -911 0
260 96 97 -909 911 0
260 -96 97 -909 -911 0
260 96 97 909 -911 0
260 -96 -97 -909 911 0
260 96 -97 909 911 0
260 93 -114 -129 -328 0
260 93 -114 129 328 0
260 -93 114 -129 -328 0
260 -93 114 129 328 0
260 -93 -114 129 -328 0
260 93 114 129 -328 0
260 -93 -114 -129 328 0
260 93 114 -129 328 0
260 31 -36 -38 -698 0
260 31 -36 38 698 0
260 -31 36 -38 -698 0
260 -31 36 38 698 0
260 -31 -36 38 -698 0
260 31 36 38 -698 0
260 -31 -36 -38 698 0
260 31 36 -38 698 0
260 -97 -98 839 -841 0
260 -97 98 839 841 0
260 97 -98 -839 -841 0
260 97 98 -839 841 0
260 -97 98 -839 -841 0
260 97 98 839 -841 0
260 -97 -98 -839 841 0
260 97 -98 839 841 0
260 -30 -60 657 -659 0
260 -30 60 657 659 0
260 30 -60 -657 -659 0
260 30 60 -657 659 0
260 -30 60 -657 -659 0
260 30 60 657 -659 0
260 -30 -60 -657 659 0
260 30 -60 657 659 0
260 32 -37 -39 -703 0
260 32 -37 39 703 0
260 -32 37 -39 -703 0
260 -32 37 39 703 0
260 -32 -37 39 -703 0
260 32 37 39 -703 0
260 -32 -37 -39 703 0
260 32 37 -39 703 0
260 -44 -46 662 -664 0
260 -44 46 662 664 0
260 44 -46 -662 -664 0
260 44 46 -662 664 0
260 -44 46 -662 -664 0
260 44 46 662 -664 0
260 -44 -46 -662 664 0
260 44 -46 662 664 0
260 94 -109 -133 -453 0
260 94 -109 133 453 0
260 -94 109 -133 -453 0
260 -94 109 133 453 0
260 -94 -109 133 -453 0
260 94 109 133 -453 0
260 -94 -109 -133 453 0
260 94 109 -133 453 0
260 94 -115 -130 -333 0
260 94 -115 130 333 0
260 -94 115 -130 -333 0
260 -94 115 130 333 0
260 -94 -115 130 -333 0
260 94 115 130 -333 0
260 -94 -115 -130 333 0
260 94 115 -130 333 0
260 -114 -116 903 -905 0
260 -114 116 903 905 0
260 114 -116 -903 -905 0
260 114 116 -903 905 0
260 -114 116 -903 -905 0
260 114 116 903 -905 0
260 -114 -116 -903 905 0
260 114 -116 903 905 0
260 -128 -166 502 -504 0
260 -128 166 502 504 0
260 128 -166 -502 -504 0
260 128 166 -502 504 0
260 -128 166 -502 -504 0
260 128 166 502 -504 0
260 -128 -166 -502 504 0
260 128 -166 502 504 0
260 96 -117 -132 -343 0
260 96 -117 132 343 0
260 -96 117 -132 -343 0
260 -96 117 132 343 0
260 -96 -117 132 -343 0
260 96 117 132 -343 0
260 -96 -117 -132 343 0
260 96 117 -132 343 0
260 91 -92 -94 -838 0
260 91 -92 94 838 0
260 -91 92 -94 -838 0
260 -91 92 94 838 0
260 -91 -92 94 -838 0
260 91 92 94 -838 0
260 -91 -92 -94 838 0
260 91 92 -94 838 0
260 95 -116 -131 -338 0
260 95 -116 131 338 0
260 -95 116 -131 -338 0
260 -95 116 131 338 0
260 -95 -116 131 -338 0
260 95 116 131 -338 0
260 -95 -116 -131 338 0
260 95 116 -131 338 0
260 -41 -48 672 -674 0
260 -41 48 672 674 0
260 41 -48 -672 -674 0
260 41 48 -672 674 0
260 -41 48 -672 -674 0
260 41 48 672 -674 0
260 -41 -48 -672 674 0
260 41 -48 672 674 0
260 93 -108 -132 -448 0
260 93 -108 132 448 0
260 -93 108 -132 -448 0
260 -93 108 132 448 0
260 -93 -108 132 -448 0
260 93 108 132 -448 0
260 -93 -108 -132 448 0
260 93 108 -132 448 0
260 34 -36 -44 -688 0
260 34 -36 44 688 0
260 -34 36 -44 -688 0
260 -34 36 44 688 0
260 -34 -36 44 -688 0
260 34 36 44 -688 0
260 -34 -36 -44 688 0
260 34 36 -44 688 0
260 -45 -52 692 -694 0
260 -45 52 692 694 0
260 45 -52 -692 -694 0
260 45 52 -692 694 0
260 -45 52 -692 -694 0
260 45 52 692 -694 0
260 -45 -52 -692 694 0
260 45 -52 692 694 0
260 91 -92 -94 -896 0
260 91 -92 94 896 0
260 -91 92 -94 -896 0
260 -91 92 94 896 0
260 -91 -92 94 -896 0
260 91 92 94 -896 0
260 -91 -92 -94 896 0
260 91 92 -94 896 0
260 32 -40 -45 -668 0
260 32 -40 45 668 0
260 -32 40 -45 -668 0
260 -32 40 45 668 0
260 -32 -40 45 -668 0
260 32 40 45 -668 0
260 -32 -40 -45 668 0
260 32 40 -45 668 0
260 -106 -107 899 -901 0
260 -106 107 899 901 0
260 106 -107 -899 -901 0
260 106 107 -899 901 0
260 -106 107 -899 -901 0
260 106 107 899 -901 0
260 -106 -107 -899 901 0
260 106 -107 899 901 0
260 97 -118 -133 -348 0
260 97 -118 133 348 0
260 -97 118 -133 -348 0
260 -97 118 133 348 0
260 -97 -118 133 -348 0
260 97 118 133 -348 0
260 -97 -118 -133 348 0
260 97 118 -133 348 0
260 3 -5 -8 -794 0
260 3 -5 8 794 0
260 -3 5 -8 -794 0
260 -3 5 8 794 0
260 -3 -5 8 -794 0
260 3 5 8 -794 0
260 -3 -5 -8 794 0
260 3 5 -8 794 0
260 33 -38 -40 -708 0
260 33 -38 40 708 0
260 -33 38 -40 -708 0
260 -33 38 40 708 0
260 -33 -38 40 -708 0
260 33 38 40 -708 0
260 -33 -38 -40 708 0
260 33 38 -40 708 0
260 99 -108 -129 -403 0
260 99 -108 129 403 0
260 -99 108 -129 -403 0
260 -99 108 129 403 0
260 -99 -108 129 -403 0
260 99 108 129 -403 0
260 -99 -108 -129 403 0
260 99 108 -129 403 0
260 92 -107 -131 -443 0
260 92 -107 131 443 0
260 -92 107 -131 -443 0
260 -92 107 131 443 0
260 -92 -107 131 -443 0
260 92 107 131 -443 0
260 -92 -107 -131 443 0
260 92 107 -131 443 0
260 99 -114 -123 -478 0
260 99 -114 123 478 0
260 -99 114 -123 -478 0
260 -99 114 123 478 0
260 -99 -114 123 -478 0
260 99 114 123 -478 0
260 -99 -114 -123 478 0
260 99 114 -123 478 0
260 94 -95 -96 -878 0
260 94 -95 96 878 0
260 -94 95 -96 -878 0
260 -94 95 96 878 0
260 -94 -95 96 -878 0
260 94 95 96 -878 0
260 -94 -95 -96 878 0
260 94 95 -96 878 0
260 -43 -58 722 -724 0
260 -43 58 722 724 0
260 43 -58 -722 -724 0
260 43 58 -722 724 0
260 -43 58 -722 -724 0
260 43 58 722 -724 0
260 -43 -58 -722 724 0
260 43 -58 722 724 0
260 -133 -155 422 -424 0
260 -133 155 422 424 0
260 133 -155 -422 -424 0
260 133 155 -422 424 0
260 -133 155 -422 -424 0
260 133 155 422 -424 0
260 -133 -155 -422 424 0
260 133 -155 422 424 0
260 -110 -111 884 -886 0
260 -110 111 884 886 0
260 110 -111 -884 -886 0
260 110 111 -884 886 0
260 -110 111 -884 -886 0
260 110 111 884 -886 0
260 -110 -111 -884 886 0
260 110 -111 884 886 0
260 38 -43 -45 -733 0
260 38 -43 45 733 0
260 -38 43 -45 -733 0
260 -38 43 45 733 0
260 -38 -43 45 -733 0
260 38 43 45 -733 0
260 -38 -43 -45 733 0
260 38 43 -45 733 0
260 -17 -20 795 -797 0
260 -17 20 795 797 0
260 17 -20 -795 -797 0
260 17 20 -795 797 0
260 -17 20 -795 -797 0
260 17 20 795 -797 0
260 -17 -20 -795 797 0
260 17 -20 795 797 0
260 -99 -102 880 -882 0
260 -99 102 880 882 0
260 99 -102 -880 -882 0
260 99 102 -880 882 0
260 -99 102 -880 -882 0
260 99 102 880 -882 0
260 -99 -102 -880 882 0
260 99 -102 880 882 0
260 1 -4 -7 -738 0
260 1 -4 7 738 0
260 -1 4 -7 -738 0
260 -1 4 7 738 0
260 -1 -4 7 -738 0
260 1 4 7 -738 0
260 -1 -4 -7 738 0
260 1 4 -7 738 0
260 -22 -25 742 -744 0
260 -22 25 742 744 0
260 22 -25 -742 -744 0
260 22 25 -742 744 0
260 -22 25 -742 -744 0
260 22 25 742 -744 0
260 -22 -25 -742 744 0
260 22 -25 742 744 0
260 -16 -19 740 -742 0
260 -16 19 740 742 0
260 16 -19 -740 -742 0
260 16 19 -740 742 0
260 -16 19 -740 -742 0
260 16 19 740 -742 0
260 -16 -19 -740 742 0
260 16 -19 740 742 0
260 -128 -158 397 -399 0
260 -128 158 397 399 0
260 128 -158 -397 -399 0
260 128 158 -397 399 0
260 -128 158 -397 -399 0
260 128 158 397 -399 0
260 -128 -158 -397 399 0
260 128 -158 397 399 0
260 -35 -41 800 -802 0
260 -35 41 800 802 0
260 35 -41 -800 -802 0
260 35 41 -800 802 0
260 -35 41 -800 -802 0
260 35 41 800 -802 0
260 -35 -41 -800 802 0
260 35 -41 800 802 0
260 93 -117 -123 -373 0
260 93 -117 123 373 0
260 -93 117 -123 -373 0
260 -93 117 123 373 0
260 -93 -117 123 -373 0
260 93 117 123 -373 0
260 -93 -117 -123 373 0
260 93 117 -123 373 0
260 -102 -103 913 -915 0
260 -102 103 913 915 0
260 102 -103 -913 -915 0
260 102 103 -913 915 0
260 -102 103 -913 -915 0
260 102 103 913 -915 0
260 -102 -103 -913 915 0
260 102 -103 913 915 0
260 -11 -14 748 -750 0
260 -11 14 748 750 0
260 11 -14 -748 -750 0
260 11 14 -748 750 0
260 -11 14 -748 -750 0
260 11 14 748 -750 0
260 -11 -14 -748 750 0
260 11 -14 748 750 0
260 -17 -20 750 -752 0
260 -17 20 750 752 0
260 17 -20 -750 -752 0
260 17 20 -750 752 0
260 -17 20 -750 -752 0
260 17 20 750 -752 0
260 -17 -20 -750 752 0
260 17 -20 750 752 0
260 -10 -13 758 -760 0
260 -10 13 758 760 0
260 10 -13 -758 -760 0
260 10 13 -758 760 0
260 -10 13 -758 -760 0
260 10 13 758 -760 0
260 -10 -13 -758 760 0
260 10 -13 758 760 0
260 -26 -27 797 -799 0
260 -26 27 797 799 0
260 26 -27 -797 -799 0
260 26 27 -797 799 0
260 -26 27 -797 -799 0
260 26 27 797 -799 0
260 -26 -27 -797 799 0
260 26 -27 797 799 0
260 -37 -40 762 -764 0
260 -37 40 762 764 0
260 37 -40 -762 -764 0
260 37 40 -762 764 0
260 -37 40 -762 -764 0
260 37 40 762 -764 0
260 -37 -40 -762 764 0
260 37 -40 762 764 0
260 95 -119 -125 -383 0
260 95 -119 125 383 0
260 -95 119 -125 -383 0
260 -95 119 125 383 0
260 -95 -119 125 -383 0
260 95 119 125 -383 0
260 -95 -119 -125 383 0
260 95 119 -125 383 0
260 -31 -34 760 -762 0
260 -31 34 760 762 0
260 31 -34 -760 -762 0
260 31 34 -760 762 0
260 -31 34 -760 -762 0
260 31 34 760 -762 0
260 -31 -34 -760 762 0
260 31 -34 760 762 0
260 -117 -118 889 -891 0
260 -117 118 889 891 0
260 117 -118 -889 -891 0
260 117 118 -889 891 0
260 -117 118 -889 -891 0
260 117 118 889 -891 0
260 -117 -118 -889 891 0
260 117 -118 889 891 0
260 -100 -102 851 -853 0
260 -100 102 851 853 0
260 100 -102 -851 -853 0
260 100 102 -851 853 0
260 -100 102 -851 -853 0
260 100 102 851 -853 0
260 -100 -102 -851 853 0
260 100 -102 851 853 0
260 -18 -19 782 -784 0
260 -18 19 782 784 0
260 18 -19 -782 -784 0
260 18 19 -782 784 0
260 -18 19 -782 -784 0
260 18 19 782 -784 0
260 -18 -19 -782 784 0
260 18 -19 782 784 0
260 -14 -32 769 -771 0
260 -14 32 769 771 0
260 14 -32 -769 -771 0
260 14 32 -769 771 0
260 -14 32 -769 -771 0
260 14 32 769 -771 0
260 -14 -32 -769 771 0
260 14 -32 769 771 0
260 -38 -41 772 -774 0
260 -38 41 772 774 0
260 38 -41 -772 -774 0
260 38 41 -772 774 0
260 -38 41 -772 -774 0
260 38 41 772 -774 0
260 -38 -41 -772 774 0
260 38 -41 772 774 0
260 -9 -10 778 -780 0
260 -9 10 778 780 0
260 9 -10 -778 -780 0
260 9 10 -778 780 0
260 -9 10 -778 -780 0
260 9 10 778 -780 0
260 -9 -10 -778 780 0
260 9 -10 778 780 0
260 -33 -34 786 -788 0
260 -33 34 786 788 0
260 33 -34 -786 -788 0
260 33 34 -786 788 0
260 -33 34 -786 -788 0
260 33 34 786 -788 0
260 -33 -34 -786 788 0
260 33 -34 786 788 0
260 -41 -46 788 -790 0
260 -41 46 788 790 0
260 41 -46 -788 -790 0
260 41 46 -788 790 0
260 -41 46 -788 -790 0
260 41 46 788 -790 0
260 -41 -46 -788 790 0
260 41 -46 788 790 0
260 2 -3 -4 -808 0
260 2 -3 4 808 0
260 -2 3 -4 -808 0
260 -2 3 4 808 0
260 -2 -3 4 -808 0
260 2 3 4 -808 0
260 -2 -3 -4 808 0
260 2 3 -4 808 0
260 97 -106 -127 -393 0
260 97 -106 127 393 0
260 -97 106 -127 -393 0
260 -97 106 127 393 0
260 -97 -106 127 -393 0
260 97 106 127 -393 0
260 -97 -106 -127 393 0
260 97 106 -127 393 0
260 -42 -46 802 -804 0
260 -42 46 802 804 0
260 42 -46 -802 -804 0
260 42 46 -802 804 0
260 -42 46 -802 -804 0
260 42 46 802 -804 0
260 -42 -46 -802 804 0
260 42 -46 802 804 0
260 -26 -32 784 -786 0
260 -26 32 784 786 0
260 26 -32 -784 -786 0
260 26 32 -784 786 0
260 -26 32 -784 -786 0
260 26 32 784 -786 0
260 -26 -32 -784 786 0
260 26 -32 784 786 0
260 -41 -61 818 -820 0
260 -41 61 818 820 0
260 41 -61 -818 -820 0
260 41 61 -818 820 0
260 -41 61 -818 -820 0
260 41 61 818 -820 0
260 -41 -61 -818 820 0
260 41 -61 818 820 0
260 -11 -17 780 -782 0
260 -11 17 780 782 0
260 11 -17 -780 -782 0
260 11 17 -780 782 0
260 -11 17 -780 -782 0
260 11 17 780 -782 0
260 -11 -17 -780 782 0
260 11 -17 780 782 0
260 104 -113 -134 -428 0
260 104 -113 134 428 0
260 -104 113 -134 -428 0
260 -104 113 134 428 0
260 -104 -113 134 -428 0
260 104 113 134 -428 0
260 -104 -113 -134 428 0
260 104 113 -134 428 0
260 -126 -156 387 -389 0
260 -126 156 387 389 0
260 126 -156 -387 -389 0
260 126 156 -387 389 0
260 -126 156 -387 -389 0
260 126 156 387 -389 0
260 -126 -156 -387 389 0
260 126 -156 387 389 0
260 -112 -113 859 -861 0
260 -112 113 859 861 0
260 112 -113 -859 -861 0
260 112 113 -859 861 0
260 -112 113 -859 -861 0
260 112 113 859 -861 0
260 -112 -113 -859 861 0
260 112 -113 859 861 0
260 105 -114 -135 -433 0
260 105 -114 135 433 0
260 -105 114 -135 -433 0
260 -105 114 135 433 0
260 -105 -114 135 -433 0
260 105 114 135 -433 0
260 -105 -114 -135 433 0
260 105 114 -135 433 0
260 3 -4 -8 -778 0
260 3 -4 8 778 0
260 -3 4 -8 -778 0
260 -3 4 8 778 0
260 -3 -4 8 -778 0
260 3 4 8 -778 0
260 -3 -4 -8 778 0
260 3 4 -8 778 0
260 -101 -103 842 -844 0
260 -101 103 842 844 0
260 101 -103 -842 -844 0
260 101 103 -842 844 0
260 -101 103 -842 -844 0
260 101 103 842 -844 0
260 -101 -103 -842 844 0
260 101 -103 842 844 0
260 -97 -99 849 -851 0
260 -97 99 849 851 0
260 97 -99 -849 -851 0
260 97 99 -849 851 0
260 -97 99 -849 -851 0
260 97 99 849 -851 0
260 -97 -99 -849 851 0
260 97 -99 849 851 0
260 -116 -118 862 -864 0
260 -116 118 862 864 0
260 116 -118 -862 -864 0
260 116 118 -862 864 0
260 -116 118 -862 -864 0
260 116 118 862 -864 0
260 -116 -118 -862 864 0
260 116 -118 862 864 0
260 -109 -110 857 -859 0
260 -109 110 857 859 0
260 109 -110 -857 -859 0
260 109 110 -857 859 0
260 -109 110 -857 -859 0
260 109 110 857 -859 0
260 -109 -110 -857 859 0
260 109 -110 857 859 0
260 -114 -115 870 -872 0
260 -114 115 870 872 0
260 114 -115 -870 -872 0
260 114 115 -870 872 0
260 -114 115 -870 -872 0
260 114 115 870 -872 0
260 -114 -115 -870 872 0
260 114 -115 870 872 0
260 106 -108 -109 -868 0
260 106 -108 109 868 0
260 -106 108 -109 -868 0
260 -106 108 109 868 0
260 -106 -108 109 -868 0
260 106 108 109 -868 0
260 -106 -108 -109 868 0
260 106 108 -109 868 0
260 -8 -11 767 -769 0
260 -8 11 767 769 0
260 8 -11 -767 -769 0
260 8 11 -767 769 0
260 -8 11 -767 -769 0
260 8 11 767 -769 0
260 -8 -11 -767 769 0
260 8 -11 767 769 0
260 -97 -98 878 -880 0
260 -97 98 878 880 0
260 97 -98 -878 -880 0
260 97 98 -878 880 0
260 -97 98 -878 -880 0
260 97 98 878 -880 0
260 -97 -98 -878 880 0
260 97 -98 878 880 0
260 -103 -109 882 -884 0
260 -103 109 882 884 0
260 103 -109 -882 -884 0
260 103 109 -882 884 0
260 -103 109 -882 -884 0
260 103 109 882 -884 0
260 -103 -109 -882 884 0
260 103 -109 882 884 0
260 -109 -111 901 -903 0
260 -109 111 901 903 0
260 109 -111 -901 -903 0
260 109 111 -901 903 0
260 -109 111 -901 -903 0
260 109 111 901 -903 0
260 -109 -111 -901 903 0
260 109 -111 901 903 0
260 -124 -154 377 -379 0
260 -124 154 377 379 0
260 124 -154 -377 -379 0
260 124 154 -377 379 0
260 -124 154 -377 -379 0
260 124 154 377 -379 0
260 -124 -154 -377 379 0
260 124 -154 377 379 0
260 1 -4 -7 -758 0
260 1 -4 7 758 0
260 -1 4 -7 -758 0
260 -1 4 7 758 0
260 -1 -4 7 -758 0
260 1 4 7 -758 0
260 -1 -4 -7 758 0
260 1 4 -7 758 0
260 -126 -129 934 -936 0
260 -126 129 934 936 0
260 126 -129 -934 -936 0
260 126 129 -934 936 0
260 -126 129 -934 -936 0
260 126 129 934 -936 0
260 -126 -129 -934 936 0
260 126 -129 934 936 0
260 -99 -101 929 -931 0
260 -99 101 929 931 0
260 99 -101 -929 -931 0
260 99 101 -929 931 0
260 -99 101 -929 -931 0
260 99 101 929 -931 0
260 -99 -101 -929 931 0
260 99 -101 929 931 0
260 -23 -26 752 -754 0
260 -23 26 752 754 0
260 23 -26 -752 -754 0
260 23 26 -752 754 0
260 -23 26 -752 -754 0
260 23 26 752 -754 0
260 -23 -26 -752 754 0
260 23 -26 752 754 0
260 -94 -96 847 -849 0
260 -94 96 847 849 0
260 94 -96 -847 -849 0
260 94 96 -847 849 0
260 -94 96 -847 -849 0
260 94 96 847 -849 0
260 -94 -96 -847 849 0
260 94 -96 847 849 0
260 -122 -173 472 -474 0
260 -122 173 472 474 0
260 122 -173 -472 -474 0
260 122 173 -472 474 0
260 -122 173 -472 -474 0
260 122 173 472 -474 0
260 -122 -173 -472 474 0
260 122 -173 472 474 0
260 100 -115 -124 -483 0
260 100 -115 124 483 0
260 -100 115 -124 -483 0
260 -100 115 124 483 0
260 -100 -115 124 -483 0
260 100 115 124 -483 0
260 -100 -115 -124 483 0
260 100 115 -124 483 0
260 -10 -13 738 -740 0
260 -10 13 738 740 0
260 10 -13 -738 -740 0
260 10 13 -738 740 0
260 -10 13 -738 -740 0
260 10 13 738 -740 0
260 -10 -13 -738 740 0
260 10 -13 738 740 0
260 2 -5 -8 -748 0
260 2 -5 8 748 0
260 -2 5 -8 -748 0
260 -2 5 8 748 0
260 -2 -5 8 -748 0
260 2 5 8 -748 0
260 -2 -5 -8 748 0
260 2 5 -8 748 0
260 101 -116 -125 -488 0
260 101 -116 125 488 0
260 -101 116 -125 -488 0
260 -101 116 125 488 0
260 -101 -116 125 -488 0
260 101 116 125 -488 0
260 -101 -116 -125 488 0
260 101 116 -125 488 0
260 -126 -169 492 -494 0
260 -126 169 492 494 0
260 126 -169 -492 -494 0
260 126 169 -492 494 0
260 -126 169 -492 -494 0
260 126 169 492 -494 0
260 -126 -169 -492 494 0
260 126 -169 492 494 0
260 103 -118 -127 -498 0
260 103 -118 127 498 0
260 -103 118 -127 -498 0
260 -103 118 127 498 0
260 -103 -118 127 -498 0
260 103 118 127 -498 0
260 -103 -118 -127 498 0
260 103 118 -127 498 0
260 -122 -152 367 -369 0
260 -122 152 367 369 0
260 122 -152 -367 -369 0
260 122 152 -367 369 0
260 -122 152 -367 -369 0
260 122 152 367 -369 0
260 -122 -152 -367 369 0
260 122 -152 367 369 0
260 105 -120 -129 -508 0
260 105 -120 129 508 0
260 -105 120 -129 -508 0
260 -105 120 129 508 0
260 -105 -120 129 -508 0
260 105 120 129 -508 0
260 -105 -120 -129 508 0
260 105 120 -129 508 0
