p wcnf 1872 5410 400
1 -273 0
1 -274 0
1 -275 0
1 -276 0
1 -277 0
1 -278 0
1 -279 0
1 -280 0
1 -281 0
1 -282 0
1 -283 0
1 -284 0
1 -285 0
1 -286 0
1 -287 0
1 -288 0
1 -289 0
1 -290 0
1 -291 0
1 -292 0
1 -293 0
1 -294 0
1 -295 0
1 -296 0
1 -297 0
1 -298 0
1 -299 0
1 -300 0
1 -301 0
1 -302 0
1 -303 0
1 -304 0
1 -305 0
1 -306 0
1 -307 0
1 -308 0
1 -309 0
1 -310 0
1 -311 0
1 -312 0
1 -313 0
1 -314 0
1 -315 0
1 -316 0
1 -317 0
1 -318 0
1 -319 0
1 -320 0
1 -321 0
1 -322 0
1 -323 0
1 -324 0
1 -325 0
1 -326 0
1 -327 0
1 -328 0
1 -329 0
1 -330 0
1 -331 0
1 -332 0
1 -333 0
1 -334 0
1 -335 0
1 -336 0
1 -337 0
1 -338 0
1 -339 0
1 -340 0
1 -341 0
1 -342 0
1 -343 0
1 -344 0
1 -345 0
1 -346 0
1 -347 0
1 -348 0
1 -349 0
1 -350 0
1 -351 0
1 -352 0
1 -353 0
1 -354 0
1 -355 0
1 -356 0
1 -357 0
1 -358 0
1 -359 0
1 -360 0
1 -361 0
1 -362 0
1 -363 0
1 -364 0
1 -365 0
1 -366 0
1 -367 0
1 -368 0
1 -369 0
1 -370 0
1 -371 0
1 -372 0
1 -373 0
1 -374 0
1 -375 0
1 -376 0
1 -377 0
1 -378 0
1 -379 0
1 -380 0
1 -381 0
1 -382 0
1 -383 0
1 -384 0
1 -385 0
1 -386 0
1 -387 0
1 -388 0
1 -389 0
1 -390 0
1 -391 0
1 -392 0
1 -393 0
1 -394 0
1 -395 0
1 -396 0
1 -397 0
1 -398 0
1 -399 0
1 -400 0
1 -401 0
1 -402 0
1 -403 0
1 -404 0
1 -405 0
1 -406 0
1 -407 0
1 -408 0
400 -199 -474 -475 0
400 199 474 -475 0
400 -199 474 475 0
400 199 -474 475 0
400 -237 -483 -484 0
400 237 483 -484 0
400 -237 483 484 0
400 237 -483 484 0
400 -238 -490 -491 0
400 238 490 -491 0
400 -238 490 491 0
400 238 -490 491 0
400 -239 -497 -498 0
400 239 497 -498 0
400 -239 497 498 0
400 239 -497 498 0
400 -240 -504 -505 0
400 240 504 -505 0
400 -240 504 505 0
400 240 -504 505 0
400 -204 -509 -510 0
400 204 509 -510 0
400 -204 509 510 0
400 204 -509 510 0
400 -238 -518 -519 0
400 238 518 -519 0
400 -238 518 519 0
400 238 -518 519 0
400 -239 -525 -526 0
400 239 525 -526 0
400 -239 525 526 0
400 239 -525 526 0
400 -240 -532 -533 0
400 240 532 -533 0
400 -240 532 533 0
400 240 -532 533 0
400 -237 -539 -540 0
400 237 539 -540 0
400 -237 539 540 0
400 237 -539 540 0
400 -238 -546 -547 0
400 238 546 -547 0
400 -238 546 547 0
400 238 -546 547 0
400 -206 -551 -552 0
400 206 551 -552 0
400 -206 551 552 0
400 206 -551 552 0
400 -239 -560 -561 0
400 239 560 -561 0
400 -239 560 561 0
400 239 -560 561 0
400 -151 -171 -564 0
400 151 171 -564 0
400 151 -171 564 0
400 -151 171 564 0
400 -152 -172 -571 0
400 152 172 -571 0
400 152 -172 571 0
400 -152 172 571 0
400 -238 -581 -582 0
400 238 581 -582 0
400 -238 581 582 0
400 238 -581 582 0
400 -238 -588 -589 0
400 238 588 -589 0
400 -238 588 589 0
400 238 -588 589 0
400 -155 -175 -592 0
400 155 175 -592 0
400 155 -175 592 0
400 -155 175 592 0
400 -156 -176 -599 0
400 156 176 -599 0
400 156 -176 599 0
400 -156 176 599 0
400 -214 -607 -608 0
400 214 607 -608 0
400 -214 607 608 0
400 214 -607 608 0
400 -137 -158 -613 0
400 137 158 -613 0
400 137 -158 613 0
400 -137 158 613 0
400 -249 -623 -624 0
400 249 623 -624 0
400 -249 623 624 0
400 249 -623 624 0
400 -139 -160 -627 0
400 139 160 -627 0
400 139 -160 627 0
400 -139 160 627 0
400 -251 -637 -638 0
400 251 637 -638 0
400 -251 637 638 0
400 251 -637 638 0
400 -252 -644 -645 0
400 252 644 -645 0
400 -252 644 645 0
400 252 -644 645 0
400 -142 -163 -648 0
400 142 163 -648 0
400 142 -163 648 0
400 -142 163 648 0
400 -250 -658 -659 0
400 250 658 -659 0
400 -250 658 659 0
400 250 -658 659 0
400 -144 -161 -662 0
400 144 161 -662 0
400 144 -161 662 0
400 -144 161 662 0
400 -207 -670 -671 0
400 207 670 -671 0
400 -207 670 671 0
400 207 -670 671 0
400 -249 -679 -680 0
400 249 679 -680 0
400 -249 679 680 0
400 249 -679 680 0
400 -250 -686 -687 0
400 250 686 -687 0
400 -250 686 687 0
400 250 -686 687 0
400 -206 -691 -692 0
400 206 691 -692 0
400 -206 691 692 0
400 206 -691 692 0
400 -149 -170 -697 0
400 149 170 -697 0
400 149 -170 697 0
400 -149 170 697 0
400 -150 -171 -704 0
400 150 171 -704 0
400 150 -171 704 0
400 -150 171 704 0
400 -151 -172 -711 0
400 151 172 -711 0
400 151 -172 711 0
400 -151 172 711 0
400 -210 -719 -720 0
400 210 719 -720 0
400 -210 719 720 0
400 210 -719 720 0
400 -215 -726 -727 0
400 215 726 -727 0
400 -215 726 727 0
400 215 -726 727 0
400 -154 -175 -732 0
400 154 175 -732 0
400 154 -175 732 0
400 -154 175 732 0
400 -155 -176 -739 0
400 155 176 -739 0
400 155 -176 739 0
400 -155 176 739 0
400 -156 -173 -746 0
400 156 173 -746 0
400 156 -173 746 0
400 -156 173 746 0
400 -137 -159 -753 0
400 137 159 -753 0
400 137 -159 753 0
400 -137 159 753 0
400 -261 -763 -764 0
400 261 763 -764 0
400 -261 763 764 0
400 261 -763 764 0
400 -262 -770 -771 0
400 262 770 -771 0
400 -262 770 771 0
400 262 -770 771 0
400 -198 -775 -776 0
400 198 775 -776 0
400 -198 775 776 0
400 198 -775 776 0
400 -264 -784 -785 0
400 264 784 -785 0
400 -264 784 785 0
400 264 -784 785 0
400 -261 -791 -792 0
400 261 791 -792 0
400 -261 791 792 0
400 261 -791 792 0
400 -143 -161 -795 0
400 143 161 -795 0
400 143 -161 795 0
400 -143 161 795 0
400 -202 -803 -804 0
400 202 803 -804 0
400 -202 803 804 0
400 202 -803 804 0
400 -207 -810 -811 0
400 207 810 -811 0
400 -207 810 811 0
400 207 -810 811 0
400 -208 -817 -818 0
400 208 817 -818 0
400 -208 817 818 0
400 208 -817 818 0
400 -147 -165 -823 0
400 147 165 -823 0
400 147 -165 823 0
400 -147 165 823 0
400 -263 -833 -834 0
400 263 833 -834 0
400 -263 833 834 0
400 263 -833 834 0
400 -149 -171 -837 0
400 149 171 -837 0
400 149 -171 837 0
400 -149 171 837 0
400 -150 -172 -844 0
400 150 172 -844 0
400 150 -172 844 0
400 -150 172 844 0
400 -261 -854 -855 0
400 261 854 -855 0
400 -261 854 855 0
400 261 -854 855 0
400 -262 -861 -862 0
400 262 861 -862 0
400 -262 861 862 0
400 262 -861 862 0
400 -153 -175 -865 0
400 153 175 -865 0
400 153 -175 865 0
400 -153 175 865 0
400 -154 -176 -872 0
400 154 176 -872 0
400 154 -176 872 0
400 -154 176 872 0
400 -155 -173 -879 0
400 155 173 -879 0
400 155 -173 879 0
400 -155 173 879 0
400 -261 -889 -890 0
400 261 889 -890 0
400 -261 889 890 0
400 261 -889 890 0
400 -2 -6 -893 0
400 2 6 -893 0
400 2 -6 893 0
400 -2 6 893 0
400 -16 -901 -902 0
400 16 901 -902 0
400 -16 901 902 0
400 16 -901 902 0
400 -4 -8 -907 0
400 4 8 -907 0
400 4 -8 907 0
400 -4 8 907 0
400 -103 -917 -918 0
400 103 917 -918 0
400 -103 917 918 0
400 103 -917 918 0
400 -15 -922 -923 0
400 15 922 -923 0
400 -15 922 923 0
400 15 -922 923 0
400 -105 -931 -932 0
400 105 931 -932 0
400 -105 931 932 0
400 105 -931 932 0
400 -106 -938 -939 0
400 106 938 -939 0
400 -106 938 939 0
400 106 -938 939 0
400 -4 -5 -942 0
400 4 5 -942 0
400 4 -5 942 0
400 -4 5 942 0
400 -112 -952 -953 0
400 112 952 -953 0
400 -112 952 953 0
400 112 -952 953 0
400 -16 -957 -958 0
400 16 957 -958 0
400 -16 957 958 0
400 16 -957 958 0
400 -110 -966 -967 0
400 110 966 -967 0
400 -110 966 967 0
400 110 -966 967 0
400 -4 -6 -970 0
400 4 6 -970 0
400 4 -6 970 0
400 -4 6 970 0
400 -22 -26 -977 0
400 22 26 -977 0
400 22 -26 977 0
400 -22 26 977 0
400 -101 -987 -988 0
400 101 987 -988 0
400 -101 987 988 0
400 101 -987 988 0
400 -102 -994 -995 0
400 102 994 -995 0
400 -102 994 995 0
400 102 -994 995 0
400 -103 -1001 -1002 0
400 103 1001 -1002 0
400 -103 1001 1002 0
400 103 -1001 1002 0
400 -108 -1008 -1009 0
400 108 1008 -1009 0
400 -108 1008 1009 0
400 108 -1008 1009 0
400 -22 -27 -1012 0
400 22 27 -1012 0
400 22 -27 1012 0
400 -22 27 1012 0
400 -23 -28 -1019 0
400 23 28 -1019 0
400 23 -28 1019 0
400 -23 28 1019 0
400 -34 -1027 -1028 0
400 34 1027 -1028 0
400 -34 1027 1028 0
400 34 -1027 1028 0
400 -21 -27 -1033 0
400 21 27 -1033 0
400 21 -27 1033 0
400 -21 27 1033 0
400 -22 -28 -1040 0
400 22 28 -1040 0
400 22 -28 1040 0
400 -22 28 1040 0
400 -23 -25 -1047 0
400 23 25 -1047 0
400 23 -25 1047 0
400 -23 25 1047 0
400 -34 -1055 -1056 0
400 34 1055 -1056 0
400 -34 1055 1056 0
400 34 -1055 1056 0
400 -104 -1064 -1065 0
400 104 1064 -1065 0
400 -104 1064 1065 0
400 104 -1064 1065 0
400 -56 -1069 -1070 0
400 56 1069 -1070 0
400 -56 1069 1070 0
400 56 -1069 1070 0
400 -102 -1078 -1079 0
400 102 1078 -1079 0
400 -102 1078 1079 0
400 102 -1078 1079 0
400 -41 -45 -1082 0
400 41 45 -1082 0
400 41 -45 1082 0
400 -41 45 1082 0
400 -41 -46 -1089 0
400 41 46 -1089 0
400 41 -46 1089 0
400 -41 46 1089 0
400 -56 -1097 -1098 0
400 56 1097 -1098 0
400 -56 1097 1098 0
400 56 -1097 1098 0
400 -53 -1104 -1105 0
400 53 1104 -1105 0
400 -53 1104 1105 0
400 53 -1104 1105 0
400 -44 -45 -1110 0
400 44 45 -1110 0
400 44 -45 1110 0
400 -44 45 1110 0
400 -112 -1120 -1121 0
400 112 1120 -1121 0
400 -112 1120 1121 0
400 112 -1120 1121 0
400 -56 -1125 -1126 0
400 56 1125 -1126 0
400 -56 1125 1126 0
400 56 -1125 1126 0
400 -110 -1134 -1135 0
400 110 1134 -1135 0
400 -110 1134 1135 0
400 110 -1134 1135 0
400 -44 -46 -1138 0
400 44 46 -1138 0
400 44 -46 1138 0
400 -44 46 1138 0
400 -103 -1148 -1149 0
400 103 1148 -1149 0
400 -103 1148 1149 0
400 103 -1148 1149 0
400 -104 -1155 -1156 0
400 104 1155 -1156 0
400 -104 1155 1156 0
400 104 -1155 1156 0
400 -101 -1162 -1163 0
400 101 1162 -1163 0
400 -101 1162 1163 0
400 101 -1162 1163 0
400 -102 -1169 -1170 0
400 102 1169 -1170 0
400 -102 1169 1170 0
400 102 -1169 1170 0
400 -107 -1176 -1177 0
400 107 1176 -1177 0
400 -107 1176 1177 0
400 107 -1176 1177 0
400 -108 -1183 -1184 0
400 108 1183 -1184 0
400 -108 1183 1184 0
400 108 -1183 1184 0
400 -63 -68 -1187 0
400 63 68 -1187 0
400 63 -68 1187 0
400 -63 68 1187 0
400 -106 -1197 -1198 0
400 106 1197 -1198 0
400 -106 1197 1198 0
400 106 -1197 1198 0
400 -111 -1204 -1205 0
400 111 1204 -1205 0
400 -111 1204 1205 0
400 111 -1204 1205 0
400 -62 -68 -1208 0
400 62 68 -1208 0
400 62 -68 1208 0
400 -62 68 1208 0
400 -63 -65 -1215 0
400 63 65 -1215 0
400 63 -65 1215 0
400 -63 65 1215 0
400 -110 -1225 -1226 0
400 110 1225 -1226 0
400 -110 1225 1226 0
400 110 -1225 1226 0
400 -102 -1232 -1233 0
400 102 1232 -1233 0
400 -102 1232 1233 0
400 102 -1232 1233 0
400 -83 -87 -1236 0
400 83 87 -1236 0
400 83 -87 1236 0
400 -83 87 1236 0
400 -84 -88 -1243 0
400 84 88 -1243 0
400 84 -88 1243 0
400 -84 88 1243 0
400 -101 -1253 -1254 0
400 101 1253 -1254 0
400 -101 1253 1254 0
400 101 -1253 1254 0
400 -95 -1258 -1259 0
400 95 1258 -1259 0
400 -95 1258 1259 0
400 95 -1258 1259 0
400 -82 -87 -1264 0
400 82 87 -1264 0
400 82 -87 1264 0
400 -82 87 1264 0
400 -108 -1274 -1275 0
400 108 1274 -1275 0
400 -108 1274 1275 0
400 108 -1274 1275 0
400 -94 -1279 -1280 0
400 94 1279 -1280 0
400 -94 1279 1280 0
400 94 -1279 1280 0
400 -95 -1286 -1287 0
400 95 1286 -1287 0
400 -95 1286 1287 0
400 95 -1286 1287 0
400 -82 -88 -1292 0
400 82 88 -1292 0
400 82 -88 1292 0
400 -82 88 1292 0
400 -112 -1302 -1303 0
400 112 1302 -1303 0
400 -112 1302 1303 0
400 112 -1302 1303 0
400 -84 -86 -1306 0
400 84 86 -1306 0
400 84 -86 1306 0
400 -84 86 1306 0
400 1 2 3 4 5 6 7 8 9 10 11 12 13 14 15 16 17 18 19 20 21 22 23 24 25 26 27 28 29 30 31 32 33 34 35 36 37 38 39 40 41 42 43 44 45 46 47 48 49 50 51 52 53 54 55 56 57 58 59 60 61 62 63 64 65 66 67 68 69 70 71 72 73 74 75 76 77 78 79 80 81 82 83 84 85 86 87 88 89 90 91 92 93 94 95 96 97 98 99 100 101 102 103 104 105 106 107 108 109 110 111 112 113 114 115 116 117 118 119 120 121 122 123 124 125 126 127 128 129 130 131 132 133 134 135 136 137 138 139 140 141 142 143 144 145 146 147 148 149 150 151 152 153 154 155 156 157 158 159 160 161 162 163 164 165 166 167 168 169 170 171 172 173 174 175 176 177 178 179 180 181 182 183 184 185 186 187 188 189 190 191 192 193 194 195 196 197 198 199 200 201 202 203 204 205 206 207 208 209 210 211 212 213 214 215 216 217 218 219 220 221 222 223 224 225 226 227 228 229 230 231 232 233 234 235 236 237 238 239 240 241 242 243 244 245 246 247 248 249 250 251 252 253 254 255 256 257 258 259 260 261 262 263 264 265 266 267 268 269 270 271 272 0
400 -1 -2 -1313 0
400 1 2 -1313 0
400 1 -2 1313 0
400 -1 2 1313 0
400 -21 -1315 -1316 0
400 21 1315 -1316 0
400 -21 1315 1316 0
400 21 -1315 1316 0
400 -13 -14 -1337 0
400 13 14 -1337 0
400 13 -14 1337 0
400 -13 14 1337 0
400 -33 -1339 -1340 0
400 33 1339 -1340 0
400 -33 1339 1340 0
400 33 -1339 1340 0
400 -13 -16 -1435 0
400 13 16 -1435 0
400 13 -16 1435 0
400 -13 16 1435 0
400 -54 -1437 -1438 0
400 54 1437 -1438 0
400 -54 1437 1438 0
400 54 -1437 1438 0
400 -21 -1450 -1451 0
400 21 1450 -1451 0
400 -21 1450 1451 0
400 21 -1450 1451 0
400 -42 -1453 -1454 0
400 42 1453 -1454 0
400 -42 1453 1454 0
400 42 -1453 1454 0
400 -5 -6 -1469 0
400 5 6 -1469 0
400 5 -6 1469 0
400 -5 6 1469 0
400 -27 -1471 -1472 0
400 27 1471 -1472 0
400 -27 1471 1472 0
400 27 -1471 1472 0
400 -19 -1518 -1519 0
400 19 1518 -1519 0
400 -19 1518 1519 0
400 19 -1518 1519 0
400 -29 -1521 -1522 0
400 29 1521 -1522 0
400 -29 1521 1522 0
400 29 -1521 1522 0
400 -1 -5 -1535 0
400 1 5 -1535 0
400 1 -5 1535 0
400 -1 5 1535 0
400 -26 -1543 -1544 0
400 26 1543 -1544 0
400 -26 1543 1544 0
400 26 -1543 1544 0
400 -30 -1560 -1561 0
400 30 1560 -1561 0
400 -30 1560 1561 0
400 30 -1560 1561 0
400 -49 -1567 -1568 0
400 49 1567 -1568 0
400 -49 1567 1568 0
400 49 -1567 1568 0
400 -21 -1578 -1579 0
400 21 1578 -1579 0
400 -21 1578 1579 0
400 21 -1578 1579 0
400 -45 -1585 -1586 0
400 45 1585 -1586 0
400 -45 1585 1586 0
400 45 -1585 1586 0
400 -140 -1594 -1595 0
400 140 1594 -1595 0
400 -140 1594 1595 0
400 140 -1594 1595 0
400 -143 -1597 -1598 0
400 143 1597 -1598 0
400 -143 1597 1598 0
400 143 -1597 1598 0
400 -140 -1602 -1603 0
400 140 1602 -1603 0
400 -140 1602 1603 0
400 140 -1602 1603 0
400 -147 -1605 -1606 0
400 147 1605 -1606 0
400 -147 1605 1606 0
400 147 -1605 1606 0
400 -137 -138 -1629 0
400 137 138 -1629 0
400 137 -138 1629 0
400 -137 138 1629 0
400 -145 -1631 -1632 0
400 145 1631 -1632 0
400 -145 1631 1632 0
400 145 -1631 1632 0
400 -139 -141 -1657 0
400 139 141 -1657 0
400 139 -141 1657 0
400 -139 141 1657 0
400 -146 -1659 -1660 0
400 146 1659 -1660 0
400 -146 1659 1660 0
400 146 -1659 1660 0
400 -157 -158 -1663 0
400 157 158 -1663 0
400 157 -158 1663 0
400 -157 158 1663 0
400 -163 -1667 -1668 0
400 163 1667 -1668 0
400 -163 1667 1668 0
400 163 -1667 1668 0
400 -160 -1672 -1673 0
400 160 1672 -1673 0
400 -160 1672 1673 0
400 160 -1672 1673 0
400 -167 -1675 -1676 0
400 167 1675 -1676 0
400 -167 1675 1676 0
400 167 -1675 1676 0
400 -157 -158 -1685 0
400 157 158 -1685 0
400 157 -158 1685 0
400 -157 158 1685 0
400 -167 -1687 -1688 0
400 167 1687 -1688 0
400 -167 1687 1688 0
400 167 -1687 1688 0
400 -158 -159 -1691 0
400 158 159 -1691 0
400 158 -159 1691 0
400 -158 159 1691 0
400 -167 -1695 -1696 0
400 167 1695 -1696 0
400 -167 1695 1696 0
400 167 -1695 1696 0
400 -161 -1700 -1701 0
400 161 1700 -1701 0
400 -161 1700 1701 0
400 161 -1700 1701 0
400 -167 -1703 -1704 0
400 167 1703 -1704 0
400 -167 1703 1704 0
400 167 -1703 1704 0
400 -177 -178 -1749 0
400 177 178 -1749 0
400 177 -178 1749 0
400 -177 178 1749 0
400 -187 -1753 -1754 0
400 187 1753 -1754 0
400 -187 1753 1754 0
400 187 -1753 1754 0
400 -178 -179 -1757 0
400 178 179 -1757 0
400 178 -179 1757 0
400 -178 179 1757 0
400 -183 -1759 -1760 0
400 183 1759 -1760 0
400 -183 1759 1760 0
400 183 -1759 1760 0
400 -200 -1774 -1775 0
400 200 1774 -1775 0
400 -200 1774 1775 0
400 200 -1774 1775 0
400 -207 -1777 -1778 0
400 207 1777 -1778 0
400 -207 1777 1778 0
400 207 -1777 1778 0
400 -221 -1806 -1807 0
400 221 1806 -1807 0
400 -221 1806 1807 0
400 221 -1806 1807 0
400 -237 -1811 -1812 0
400 237 1811 -1812 0
400 -237 1811 1812 0
400 237 -1811 1812 0
400 -147 -1818 -1819 0
400 147 1818 -1819 0
400 -147 1818 1819 0
400 147 -1818 1819 0
400 -225 -1829 -1830 0
400 225 1829 -1830 0
400 -225 1829 1830 0
400 225 -1829 1830 0
400 -159 -1838 -1839 0
400 159 1838 -1839 0
400 -159 1838 1839 0
400 159 -1838 1839 0
400 -237 -1851 -1852 0
400 237 1851 -1852 0
400 -237 1851 1852 0
400 237 -1851 1852 0
400 409 410 411 412 413 414 415 416 417 418 419 420 421 422 423 424 425 426 427 428 429 430 431 432 433 434 435 436 437 438 439 440 441 442 443 444 445 446 447 448 449 450 451 452 453 454 455 456 457 458 459 460 461 462 463 464 465 466 467 468 469 470 471 472 0
400 1 137 -273 0
400 -1 273 0
400 -137 273 0
400 2 138 -274 0
400 -2 274 0
400 -138 274 0
400 3 139 -275 0
400 -3 275 0
400 -139 275 0
400 4 140 -276 0
400 -4 276 0
400 -140 276 0
400 5 141 -277 0
400 -5 277 0
400 -141 277 0
400 6 142 -278 0
400 -6 278 0
400 -142 278 0
400 7 143 -279 0
400 -7 279 0
400 -143 279 0
400 8 144 -280 0
400 -8 280 0
400 -144 280 0
400 9 145 -281 0
400 -9 281 0
400 -145 281 0
400 10 146 -282 0
400 -10 282 0
400 -146 282 0
400 11 147 -283 0
400 -11 283 0
400 -147 283 0
400 12 148 -284 0
400 -12 284 0
400 -148 284 0
400 13 149 -285 0
400 -13 285 0
400 -149 285 0
400 14 150 -286 0
400 -14 286 0
400 -150 286 0
400 15 151 -287 0
400 -15 287 0
400 -151 287 0
400 16 152 -288 0
400 -16 288 0
400 -152 288 0
400 17 153 -289 0
400 -17 289 0
400 -153 289 0
400 18 154 -290 0
400 -18 290 0
400 -154 290 0
400 19 155 -291 0
400 -19 291 0
400 -155 291 0
400 20 156 -292 0
400 -20 292 0
400 -156 292 0
400 21 157 -293 0
400 -21 293 0
400 -157 293 0
400 22 158 -294 0
400 -22 294 0
400 -158 294 0
400 23 159 -295 0
400 -23 295 0
400 -159 295 0
400 24 160 -296 0
400 -24 296 0
400 -160 296 0
400 25 161 -297 0
400 -25 297 0
400 -161 297 0
400 26 162 -298 0
400 -26 298 0
400 -162 298 0
400 27 163 -299 0
400 -27 299 0
400 -163 299 0
400 28 164 -300 0
400 -28 300 0
400 -164 300 0
400 29 165 -301 0
400 -29 301 0
400 -165 301 0
400 30 166 -302 0
400 -30 302 0
400 -166 302 0
400 31 167 -303 0
400 -31 303 0
400 -167 303 0
400 32 168 -304 0
400 -32 304 0
400 -168 304 0
400 33 169 -305 0
400 -33 305 0
400 -169 305 0
400 34 170 -306 0
400 -34 306 0
400 -170 306 0
400 35 171 -307 0
400 -35 307 0
400 -171 307 0
400 36 172 -308 0
400 -36 308 0
400 -172 308 0
400 37 173 -309 0
400 -37 309 0
400 -173 309 0
400 38 174 -310 0
400 -38 310 0
400 -174 310 0
400 39 175 -311 0
400 -39 311 0
400 -175 311 0
400 40 176 -312 0
400 -40 312 0
400 -176 312 0
400 41 177 -313 0
400 -41 313 0
400 -177 313 0
400 42 178 -314 0
400 -42 314 0
400 -178 314 0
400 43 179 -315 0
400 -43 315 0
400 -179 315 0
400 44 180 -316 0
400 -44 316 0
400 -180 316 0
400 45 181 -317 0
400 -45 317 0
400 -181 317 0
400 46 182 -318 0
400 -46 318 0
400 -182 318 0
400 47 183 -319 0
400 -47 319 0
400 -183 319 0
400 48 184 -320 0
400 -48 320 0
400 -184 320 0
400 49 185 -321 0
400 -49 321 0
400 -185 321 0
400 50 186 -322 0
400 -50 322 0
400 -186 322 0
400 51 187 -323 0
400 -51 323 0
400 -187 323 0
400 52 188 -324 0
400 -52 324 0
400 -188 324 0
400 53 189 -325 0
400 -53 325 0
400 -189 325 0
400 54 190 -326 0
400 -54 326 0
400 -190 326 0
400 55 191 -327 0
400 -55 327 0
400 -191 327 0
400 56 192 -328 0
400 -56 328 0
400 -192 328 0
400 57 193 -329 0
400 -57 329 0
400 -193 329 0
400 58 194 -330 0
400 -58 330 0
400 -194 330 0
400 59 195 -331 0
400 -59 331 0
400 -195 331 0
400 60 196 -332 0
400 -60 332 0
400 -196 332 0
400 61 197 -333 0
400 -61 333 0
400 -197 333 0
400 62 198 -334 0
400 -62 334 0
400 -198 334 0
400 63 199 -335 0
400 -63 335 0
400 -199 335 0
400 64 200 -336 0
400 -64 336 0
400 -200 336 0
400 65 201 -337 0
400 -65 337 0
400 -201 337 0
400 66 202 -338 0
400 -66 338 0
400 -202 338 0
400 67 203 -339 0
400 -67 339 0
400 -203 339 0
400 68 204 -340 0
400 -68 340 0
400 -204 340 0
400 69 205 -341 0
400 -69 341 0
400 -205 341 0
400 70 206 -342 0
400 -70 342 0
400 -206 342 0
400 71 207 -343 0
400 -71 343 0
400 -207 343 0
400 72 208 -344 0
400 -72 344 0
400 -208 344 0
400 73 209 -345 0
400 -73 345 0
400 -209 345 0
400 74 210 -346 0
400 -74 346 0
400 -210 346 0
400 75 211 -347 0
400 -75 347 0
400 -211 347 0
400 76 212 -348 0
400 -76 348 0
400 -212 348 0
400 77 213 -349 0
400 -77 349 0
400 -213 349 0
400 78 214 -350 0
400 -78 350 0
400 -214 350 0
400 79 215 -351 0
400 -79 351 0
400 -215 351 0
400 80 216 -352 0
400 -80 352 0
400 -216 352 0
400 81 217 -353 0
400 -81 353 0
400 -217 353 0
400 82 218 -354 0
400 -82 354 0
400 -218 354 0
400 83 219 -355 0
400 -83 355 0
400 -219 355 0
400 84 220 -356 0
400 -84 356 0
400 -220 356 0
400 85 221 -357 0
400 -85 357 0
400 -221 357 0
400 86 222 -358 0
400 -86 358 0
400 -222 358 0
400 87 223 -359 0
400 -87 359 0
400 -223 359 0
400 88 224 -360 0
400 -88 360 0
400 -224 360 0
400 89 225 -361 0
400 -89 361 0
400 -225 361 0
400 90 226 -362 0
400 -90 362 0
400 -226 362 0
400 91 227 -363 0
400 -91 363 0
400 -227 363 0
400 92 228 -364 0
400 -92 364 0
400 -228 364 0
400 93 229 -365 0
400 -93 365 0
400 -229 365 0
400 94 230 -366 0
400 -94 366 0
400 -230 366 0
400 95 231 -367 0
400 -95 367 0
400 -231 367 0
400 96 232 -368 0
400 -96 368 0
400 -232 368 0
400 97 233 -369 0
400 -97 369 0
400 -233 369 0
400 98 234 -370 0
400 -98 370 0
400 -234 370 0
400 99 235 -371 0
400 -99 371 0
400 -235 371 0
400 100 236 -372 0
400 -100 372 0
400 -236 372 0
400 101 237 -373 0
400 -101 373 0
400 -237 373 0
400 102 238 -374 0
400 -102 374 0
400 -238 374 0
400 103 239 -375 0
400 -103 375 0
400 -239 375 0
400 104 240 -376 0
400 -104 376 0
400 -240 376 0
400 105 241 -377 0
400 -105 377 0
400 -241 377 0
400 106 242 -378 0
400 -106 378 0
400 -242 378 0
400 107 243 -379 0
400 -107 379 0
400 -243 379 0
400 108 244 -380 0
400 -108 380 0
400 -244 380 0
400 109 245 -381 0
400 -109 381 0
400 -245 381 0
400 110 246 -382 0
400 -110 382 0
400 -246 382 0
400 111 247 -383 0
400 -111 383 0
400 -247 383 0
400 112 248 -384 0
400 -112 384 0
400 -248 384 0
400 113 249 -385 0
400 -113 385 0
400 -249 385 0
400 114 250 -386 0
400 -114 386 0
400 -250 386 0
400 115 251 -387 0
400 -115 387 0
400 -251 387 0
400 116 252 -388 0
400 -116 388 0
400 -252 388 0
400 117 253 -389 0
400 -117 389 0
400 -253 389 0
400 118 254 -390 0
400 -118 390 0
400 -254 390 0
400 119 255 -391 0
400 -119 391 0
400 -255 391 0
400 120 256 -392 0
400 -120 392 0
400 -256 392 0
400 121 257 -393 0
400 -121 393 0
400 -257 393 0
400 122 258 -394 0
400 -122 394 0
400 -258 394 0
400 123 259 -395 0
400 -123 395 0
400 -259 395 0
400 124 260 -396 0
400 -124 396 0
400 -260 396 0
400 125 261 -397 0
400 -125 397 0
400 -261 397 0
400 126 262 -398 0
400 -126 398 0
400 -262 398 0
400 127 263 -399 0
400 -127 399 0
400 -263 399 0
400 128 264 -400 0
400 -128 400 0
400 -264 400 0
400 129 265 -401 0
400 -129 401 0
400 -265 401 0
400 130 266 -402 0
400 -130 402 0
400 -266 402 0
400 131 267 -403 0
400 -131 403 0
400 -267 403 0
400 132 268 -404 0
400 -132 404 0
400 -268 404 0
400 133 269 -405 0
400 -133 405 0
400 -269 405 0
400 134 270 -406 0
400 -134 406 0
400 -270 406 0
400 135 271 -407 0
400 -135 407 0
400 -271 407 0
400 136 272 -408 0
400 -136 408 0
400 -272 408 0
400 -241 248 512 0
400 241 248 -512 0
400 -241 -248 -512 0
400 241 -248 512 0
400 -118 129 1023 0
400 118 129 -1023 0
400 -118 -129 -1023 0
400 118 -129 1023 0
400 -119 130 1030 0
400 119 130 -1030 0
400 -119 -130 -1030 0
400 119 -130 1030 0
400 -124 135 1037 0
400 124 135 -1037 0
400 -124 -135 -1037 0
400 124 -135 1037 0
400 -242 245 519 0
400 242 245 -519 0
400 -242 -245 -519 0
400 242 -245 519 0
400 -121 136 1044 0
400 121 136 -1044 0
400 -121 -136 -1044 0
400 121 -136 1044 0
400 -122 133 1051 0
400 122 133 -1051 0
400 -122 -133 -1051 0
400 122 -133 1051 0
400 -113 127 1086 0
400 113 127 -1086 0
400 -113 -127 -1086 0
400 113 -127 1086 0
400 -243 246 526 0
400 243 246 -526 0
400 -243 -246 -526 0
400 243 -246 526 0
400 -242 248 533 0
400 242 248 -533 0
400 -242 -248 -533 0
400 242 -248 533 0
400 -123 134 1058 0
400 123 134 -1058 0
400 -123 -134 -1058 0
400 123 -134 1058 0
400 -114 128 1065 0
400 114 128 -1065 0
400 -114 -128 -1065 0
400 114 -128 1065 0
400 -115 125 1072 0
400 115 125 -1072 0
400 -115 -125 -1072 0
400 115 -125 1072 0
400 -116 126 1079 0
400 116 126 -1079 0
400 -116 -126 -1079 0
400 116 -126 1079 0
400 -243 245 540 0
400 243 245 -540 0
400 -243 -245 -540 0
400 243 -245 540 0
400 -118 132 1093 0
400 118 132 -1093 0
400 -118 -132 -1093 0
400 118 -132 1093 0
400 -244 246 547 0
400 244 246 -547 0
400 -244 -246 -547 0
400 244 -246 547 0
400 -119 129 1100 0
400 119 129 -1100 0
400 -119 -129 -1100 0
400 119 -129 1100 0
400 -241 247 554 0
400 241 247 -554 0
400 -241 -247 -554 0
400 241 -247 554 0
400 -120 130 1107 0
400 120 130 -1107 0
400 -120 -130 -1107 0
400 120 -130 1107 0
400 -117 131 1114 0
400 117 131 -1114 0
400 -117 -131 -1114 0
400 117 -131 1114 0
400 -122 136 1121 0
400 122 136 -1121 0
400 -122 -136 -1121 0
400 122 -136 1121 0
400 -243 247 561 0
400 243 247 -561 0
400 -243 -247 -561 0
400 243 -247 561 0
400 -123 133 1128 0
400 123 133 -1128 0
400 -123 -133 -1128 0
400 123 -133 1128 0
400 -244 248 568 0
400 244 248 -568 0
400 -244 -248 -568 0
400 244 -248 568 0
400 -124 134 1135 0
400 124 134 -1135 0
400 -124 -134 -1135 0
400 124 -134 1135 0
400 -121 135 1142 0
400 121 135 -1142 0
400 -121 -135 -1142 0
400 121 -135 1142 0
400 -117 129 925 0
400 117 129 -925 0
400 -117 -129 -925 0
400 117 -129 925 0
400 -115 127 1149 0
400 115 127 -1149 0
400 -115 -127 -1149 0
400 115 -127 1149 0
400 -241 245 575 0
400 241 245 -575 0
400 -241 -245 -575 0
400 241 -245 575 0
400 -116 128 1156 0
400 116 128 -1156 0
400 -116 -128 -1156 0
400 116 -128 1156 0
400 -242 246 582 0
400 242 246 -582 0
400 -242 -246 -582 0
400 242 -246 582 0
400 -113 125 1163 0
400 113 125 -1163 0
400 -113 -125 -1163 0
400 113 -125 1163 0
400 -114 126 1170 0
400 114 126 -1170 0
400 -114 -126 -1170 0
400 114 -126 1170 0
400 -119 131 1177 0
400 119 131 -1177 0
400 -119 -131 -1177 0
400 119 -131 1177 0
400 -241 245 589 0
400 241 245 -589 0
400 -241 -245 -589 0
400 241 -245 589 0
400 -120 132 1184 0
400 120 132 -1184 0
400 -120 -132 -1184 0
400 120 -132 1184 0
400 -242 246 596 0
400 242 246 -596 0
400 -242 -246 -596 0
400 242 -246 596 0
400 -117 129 1191 0
400 117 129 -1191 0
400 -117 -129 -1191 0
400 117 -129 1191 0
400 -118 130 1198 0
400 118 130 -1198 0
400 -118 -130 -1198 0
400 118 -130 1198 0
400 -123 135 1205 0
400 123 135 -1205 0
400 -123 -135 -1205 0
400 123 -135 1205 0
400 -243 247 603 0
400 243 247 -603 0
400 -243 -247 -603 0
400 243 -247 603 0
400 -124 136 1212 0
400 124 136 -1212 0
400 -124 -136 -1212 0
400 124 -136 1212 0
400 -244 248 610 0
400 244 248 -610 0
400 -244 -248 -610 0
400 244 -248 610 0
400 -121 133 1219 0
400 121 133 -1219 0
400 -121 -133 -1219 0
400 121 -133 1219 0
400 -122 134 1226 0
400 122 134 -1226 0
400 -122 -134 -1226 0
400 122 -134 1226 0
400 -113 125 1233 0
400 113 125 -1233 0
400 -113 -125 -1233 0
400 113 -125 1233 0
400 -253 257 617 0
400 253 257 -617 0
400 -253 -257 -617 0
400 253 -257 617 0
400 -114 126 1240 0
400 114 126 -1240 0
400 -114 -126 -1240 0
400 114 -126 1240 0
400 -254 258 624 0
400 254 258 -624 0
400 -254 -258 -624 0
400 254 -258 624 0
400 -115 127 1247 0
400 115 127 -1247 0
400 -115 -127 -1247 0
400 115 -127 1247 0
400 -116 128 1254 0
400 116 128 -1254 0
400 -116 -128 -1254 0
400 116 -128 1254 0
400 -117 129 1261 0
400 117 129 -1261 0
400 -117 -129 -1261 0
400 117 -129 1261 0
400 -255 259 631 0
400 255 259 -631 0
400 -255 -259 -631 0
400 255 -259 631 0
400 -118 130 1268 0
400 118 130 -1268 0
400 -118 -130 -1268 0
400 118 -130 1268 0
400 -119 131 1275 0
400 119 131 -1275 0
400 -119 -131 -1275 0
400 119 -131 1275 0
400 -256 260 638 0
400 256 260 -638 0
400 -256 -260 -638 0
400 256 -260 638 0
400 -120 132 1282 0
400 120 132 -1282 0
400 -120 -132 -1282 0
400 120 -132 1282 0
400 -121 133 1289 0
400 121 133 -1289 0
400 -121 -133 -1289 0
400 121 -133 1289 0
400 -256 259 645 0
400 256 259 -645 0
400 -256 -259 -645 0
400 256 -259 645 0
400 -122 134 1296 0
400 122 134 -1296 0
400 -122 -134 -1296 0
400 122 -134 1296 0
400 -253 260 652 0
400 253 260 -652 0
400 -253 -260 -652 0
400 253 -260 652 0
400 -123 135 1303 0
400 123 135 -1303 0
400 -123 -135 -1303 0
400 123 -135 1303 0
400 -124 136 1310 0
400 124 136 -1310 0
400 -124 -136 -1310 0
400 124 -136 1310 0
400 -24 409 1318 0
400 24 409 -1318 0
400 -24 -409 -1318 0
400 24 -409 1318 0
400 -254 257 659 0
400 254 257 -659 0
400 -254 -257 -659 0
400 254 -257 659 0
400 -28 410 1326 0
400 28 410 -1326 0
400 -28 -410 -1326 0
400 28 -410 1326 0
400 -255 258 666 0
400 255 258 -666 0
400 -255 -258 -666 0
400 255 -258 666 0
400 -32 411 1334 0
400 32 411 -1334 0
400 -32 -411 -1334 0
400 32 -411 1334 0
400 -36 412 1342 0
400 36 412 -1342 0
400 -36 -412 -1342 0
400 36 -412 1342 0
400 -44 413 1350 0
400 44 413 -1350 0
400 -44 -413 -1350 0
400 44 -413 1350 0
400 -254 260 673 0
400 254 260 -673 0
400 -254 -260 -673 0
400 254 -260 673 0
400 -48 414 1358 0
400 48 414 -1358 0
400 -48 -414 -1358 0
400 48 -414 1358 0
400 -255 257 680 0
400 255 257 -680 0
400 -255 -257 -680 0
400 255 -257 680 0
400 -52 415 1366 0
400 52 415 -1366 0
400 -52 -415 -1366 0
400 52 -415 1366 0
400 -56 416 1374 0
400 56 416 -1374 0
400 -56 -416 -1374 0
400 56 -416 1374 0
400 -256 258 687 0
400 256 258 -687 0
400 -256 -258 -687 0
400 256 -258 687 0
400 -61 417 1380 0
400 61 417 -1380 0
400 -61 -417 -1380 0
400 61 -417 1380 0
400 -62 418 1386 0
400 62 418 -1386 0
400 -62 -418 -1386 0
400 62 -418 1386 0
400 -253 259 694 0
400 253 259 -694 0
400 -253 -259 -694 0
400 253 -259 694 0
400 -63 419 1394 0
400 63 419 -1394 0
400 -63 -419 -1394 0
400 63 -419 1394 0
400 -64 420 1400 0
400 64 420 -1400 0
400 -64 -420 -1400 0
400 64 -420 1400 0
400 -255 259 701 0
400 255 259 -701 0
400 -255 -259 -701 0
400 255 -259 701 0
400 -65 421 1406 0
400 65 421 -1406 0
400 -65 -421 -1406 0
400 65 -421 1406 0
400 -66 422 1412 0
400 66 422 -1412 0
400 -66 -422 -1412 0
400 66 -422 1412 0
400 -256 260 708 0
400 256 260 -708 0
400 -256 -260 -708 0
400 256 -260 708 0
400 -67 423 1420 0
400 67 423 -1420 0
400 -67 -423 -1420 0
400 67 -423 1420 0
400 -69 424 1426 0
400 69 424 -1426 0
400 -69 -424 -1426 0
400 69 -424 1426 0
400 -253 257 715 0
400 253 257 -715 0
400 -253 -257 -715 0
400 253 -257 715 0
400 -70 425 1432 0
400 70 425 -1432 0
400 -70 -425 -1432 0
400 70 -425 1432 0
400 -73 426 1438 0
400 73 426 -1438 0
400 -73 -426 -1438 0
400 73 -426 1438 0
400 -81 427 1446 0
400 81 427 -1446 0
400 -81 -427 -1446 0
400 81 -427 1446 0
400 -254 258 722 0
400 254 258 -722 0
400 -254 -258 -722 0
400 254 -258 722 0
400 -82 428 1454 0
400 82 428 -1454 0
400 -82 -428 -1454 0
400 82 -428 1454 0
400 -253 257 729 0
400 253 257 -729 0
400 -253 -257 -729 0
400 253 -257 729 0
400 -268 272 890 0
400 268 272 -890 0
400 -268 -272 -890 0
400 268 -272 890 0
400 -83 429 1460 0
400 83 429 -1460 0
400 -83 -429 -1460 0
400 83 -429 1460 0
400 -84 430 1466 0
400 84 430 -1466 0
400 -84 -430 -1466 0
400 84 -430 1466 0
400 -254 258 736 0
400 254 258 -736 0
400 -254 -258 -736 0
400 254 -258 736 0
400 -85 431 1474 0
400 85 431 -1474 0
400 -85 -431 -1474 0
400 85 -431 1474 0
400 -86 432 1482 0
400 86 432 -1482 0
400 -86 -432 -1482 0
400 86 -432 1482 0
400 -255 259 743 0
400 255 259 -743 0
400 -255 -259 -743 0
400 255 -259 743 0
400 -87 433 1488 0
400 87 433 -1488 0
400 -87 -433 -1488 0
400 87 -433 1488 0
400 -89 434 1496 0
400 89 434 -1496 0
400 -89 -434 -1496 0
400 89 -434 1496 0
400 -256 260 750 0
400 256 260 -750 0
400 -256 -260 -750 0
400 256 -260 750 0
400 -90 435 1504 0
400 90 435 -1504 0
400 -90 -435 -1504 0
400 90 -435 1504 0
400 -93 436 1512 0
400 93 436 -1512 0
400 -93 -436 -1512 0
400 93 -436 1512 0
400 -265 269 757 0
400 265 269 -757 0
400 -265 -269 -757 0
400 265 -269 757 0
400 -266 270 764 0
400 266 270 -764 0
400 -266 -270 -764 0
400 266 -270 764 0
400 -105 437 1532 0
400 105 437 -1532 0
400 -105 -437 -1532 0
400 105 -437 1532 0
400 -267 271 771 0
400 267 271 -771 0
400 -267 -271 -771 0
400 267 -271 771 0
400 -109 438 1552 0
400 109 438 -1552 0
400 -109 -438 -1552 0
400 109 -438 1552 0
400 -268 272 778 0
400 268 272 -778 0
400 -268 -272 -778 0
400 268 -272 778 0
400 -268 271 785 0
400 268 271 -785 0
400 -268 -271 -785 0
400 268 -271 785 0
400 -117 439 1572 0
400 117 439 -1572 0
400 -117 -439 -1572 0
400 117 -439 1572 0
400 -265 272 792 0
400 265 272 -792 0
400 -265 -272 -792 0
400 265 -272 792 0
400 -121 440 1590 0
400 121 440 -1590 0
400 -121 -440 -1590 0
400 121 -440 1590 0
400 -144 441 1598 0
400 144 441 -1598 0
400 -144 -441 -1598 0
400 144 -441 1598 0
400 -266 269 799 0
400 266 269 -799 0
400 -266 -269 -799 0
400 266 -269 799 0
400 -148 442 1606 0
400 148 442 -1606 0
400 -148 -442 -1606 0
400 148 -442 1606 0
400 -267 270 806 0
400 267 270 -806 0
400 -267 -270 -806 0
400 267 -270 806 0
400 -149 443 1612 0
400 149 443 -1612 0
400 -149 -443 -1612 0
400 149 -443 1612 0
400 -150 444 1618 0
400 150 444 -1618 0
400 -150 -444 -1618 0
400 150 -444 1618 0
400 -151 445 1626 0
400 151 445 -1626 0
400 -151 -445 -1626 0
400 151 -445 1626 0
400 -266 272 813 0
400 266 272 -813 0
400 -266 -272 -813 0
400 266 -272 813 0
400 -152 446 1632 0
400 152 446 -1632 0
400 -152 -446 -1632 0
400 152 -446 1632 0
400 -267 269 820 0
400 267 269 -820 0
400 -267 -269 -820 0
400 267 -269 820 0
400 -153 447 1640 0
400 153 447 -1640 0
400 -153 -447 -1640 0
400 153 -447 1640 0
400 -154 448 1648 0
400 154 448 -1648 0
400 -154 -448 -1648 0
400 154 -448 1648 0
400 -268 270 827 0
400 268 270 -827 0
400 -268 -270 -827 0
400 268 -270 827 0
400 -155 449 1654 0
400 155 449 -1654 0
400 -155 -449 -1654 0
400 155 -449 1654 0
400 -156 450 1660 0
400 156 450 -1660 0
400 -156 -450 -1660 0
400 156 -450 1660 0
400 -265 271 834 0
400 265 271 -834 0
400 -265 -271 -834 0
400 265 -271 834 0
400 -164 451 1668 0
400 164 451 -1668 0
400 -164 -451 -1668 0
400 164 -451 1668 0
400 -169 453 1682 0
400 169 453 -1682 0
400 -169 -453 -1682 0
400 169 -453 1682 0
400 -168 452 1676 0
400 168 452 -1676 0
400 -168 -452 -1676 0
400 168 -452 1676 0
400 -267 271 841 0
400 267 271 -841 0
400 -267 -271 -841 0
400 267 -271 841 0
400 -170 454 1688 0
400 170 454 -1688 0
400 -170 -454 -1688 0
400 170 -454 1688 0
400 -171 455 1696 0
400 171 455 -1696 0
400 -171 -455 -1696 0
400 171 -455 1696 0
400 -173 456 1704 0
400 173 456 -1704 0
400 -173 -456 -1704 0
400 173 -456 1704 0
400 -268 272 848 0
400 268 272 -848 0
400 -268 -272 -848 0
400 268 -272 848 0
400 -174 457 1712 0
400 174 457 -1712 0
400 -174 -457 -1712 0
400 174 -457 1712 0
400 -175 458 1718 0
400 175 458 -1718 0
400 -175 -458 -1718 0
400 175 -458 1718 0
400 -265 269 869 0
400 265 269 -869 0
400 -265 -269 -869 0
400 265 -269 869 0
400 -184 459 1726 0
400 184 459 -1726 0
400 -184 -459 -1726 0
400 184 -459 1726 0
400 -188 460 1734 0
400 188 460 -1734 0
400 -188 -460 -1734 0
400 188 -460 1734 0
400 -189 461 1740 0
400 189 461 -1740 0
400 -189 -461 -1740 0
400 189 -461 1740 0
400 -190 462 1746 0
400 190 462 -1746 0
400 -190 -462 -1746 0
400 190 -462 1746 0
400 -266 270 876 0
400 266 270 -876 0
400 -266 -270 -876 0
400 266 -270 876 0
400 -193 463 1754 0
400 193 463 -1754 0
400 -193 -463 -1754 0
400 193 -463 1754 0
400 -194 464 1762 0
400 194 464 -1762 0
400 -194 -464 -1762 0
400 194 -464 1762 0
400 -204 465 1770 0
400 204 465 -1770 0
400 -204 -465 -1770 0
400 204 -465 1770 0
400 -208 466 1778 0
400 208 466 -1778 0
400 -208 -466 -1778 0
400 208 -466 1778 0
400 -267 271 883 0
400 267 271 -883 0
400 -267 -271 -883 0
400 267 -271 883 0
400 -209 467 1784 0
400 209 467 -1784 0
400 -209 -467 -1784 0
400 209 -467 1784 0
400 -266 270 862 0
400 266 270 -862 0
400 -266 -270 -862 0
400 266 -270 862 0
400 -113 125 897 0
400 113 125 -897 0
400 -113 -125 -897 0
400 113 -125 897 0
400 -213 468 1792 0
400 213 468 -1792 0
400 -213 -468 -1792 0
400 213 -468 1792 0
400 -114 126 904 0
400 114 126 -904 0
400 -114 -126 -904 0
400 114 -126 904 0
400 -249 469 1812 0
400 249 469 -1812 0
400 -249 -469 -1812 0
400 249 -469 1812 0
400 -115 127 911 0
400 115 127 -911 0
400 -115 -127 -911 0
400 115 -127 911 0
400 -116 128 918 0
400 116 128 -918 0
400 -116 -128 -918 0
400 116 -128 918 0
400 -253 470 1832 0
400 253 470 -1832 0
400 -253 -470 -1832 0
400 253 -470 1832 0
400 -261 471 1852 0
400 261 471 -1852 0
400 -261 -471 -1852 0
400 261 -471 1852 0
400 -265 269 855 0
400 265 269 -855 0
400 -265 -269 -855 0
400 265 -269 855 0
400 -118 130 932 0
400 118 130 -932 0
400 -118 -130 -932 0
400 118 -130 932 0
400 -265 472 1870 0
400 265 472 -1870 0
400 -265 -472 -1870 0
400 265 -472 1870 0
400 -119 131 939 0
400 119 131 -939 0
400 -119 -131 -939 0
400 119 -131 939 0
400 -120 132 946 0
400 120 132 -946 0
400 -120 -132 -946 0
400 120 -132 946 0
400 -121 133 953 0
400 121 133 -953 0
400 -121 -133 -953 0
400 121 -133 953 0
400 -241 245 477 0
400 241 245 -477 0
400 -241 -245 -477 0
400 241 -245 477 0
400 -122 134 960 0
400 122 134 -960 0
400 -122 -134 -960 0
400 122 -134 960 0
400 -124 136 974 0
400 124 136 -974 0
400 -124 -136 -974 0
400 124 -136 974 0
400 -242 246 484 0
400 242 246 -484 0
400 -242 -246 -484 0
400 242 -246 484 0
400 -123 135 967 0
400 123 135 -967 0
400 -123 -135 -967 0
400 123 -135 967 0
400 -116 127 981 0
400 116 127 -981 0
400 -116 -127 -981 0
400 116 -127 981 0
400 -243 247 491 0
400 243 247 -491 0
400 -243 -247 -491 0
400 243 -247 491 0
400 -113 128 988 0
400 113 128 -988 0
400 -113 -128 -988 0
400 113 -128 988 0
400 -244 248 498 0
400 244 248 -498 0
400 -244 -248 -498 0
400 244 -248 498 0
400 -114 125 995 0
400 114 125 -995 0
400 -114 -125 -995 0
400 114 -125 995 0
400 -115 126 1002 0
400 115 126 -1002 0
400 -115 -126 -1002 0
400 115 -126 1002 0
400 -120 131 1009 0
400 120 131 -1009 0
400 -120 -131 -1009 0
400 120 -131 1009 0
400 -244 247 505 0
400 244 247 -505 0
400 -244 -247 -505 0
400 244 -247 505 0
400 -117 132 1016 0
400 117 132 -1016 0
400 -117 -132 -1016 0
400 117 -132 1016 0
400 -184 -201 795 -797 0
400 -184 201 795 797 0
400 184 -201 -795 -797 0
400 184 201 -795 797 0
400 -184 201 -795 -797 0
400 184 201 795 -797 0
400 -184 -201 -795 797 0
400 184 -201 795 797 0
400 -235 -252 741 -743 0
400 -235 252 741 743 0
400 235 -252 -741 -743 0
400 235 252 -741 743 0
400 -235 252 -741 -743 0
400 235 252 741 -743 0
400 -235 -252 -741 743 0
400 235 -252 741 743 0
400 -93 -99 1300 -1302 0
400 -93 99 1300 1302 0
400 93 -99 -1300 -1302 0
400 93 99 -1300 1302 0
400 -93 99 -1300 -1302 0
400 93 99 1300 -1302 0
400 -93 -99 -1300 1302 0
400 93 -99 1300 1302 0
400 -222 -249 650 -652 0
400 -222 249 650 652 0
400 222 -249 -650 -652 0
400 222 249 -650 652 0
400 -222 249 -650 -652 0
400 222 249 650 -652 0
400 -222 -249 -650 652 0
400 222 -249 650 652 0
400 -141 -143 1636 -1638 0
400 -141 143 1636 1638 0
400 141 -143 -1636 -1638 0
400 141 143 -1636 1638 0
400 -141 143 -1636 -1638 0
400 141 143 1636 -1638 0
400 -141 -143 -1636 1638 0
400 141 -143 1636 1638 0
400 -16 -18 929 -931 0
400 -16 18 929 931 0
400 16 -18 -929 -931 0
400 16 18 -929 931 0
400 -16 18 -929 -931 0
400 16 18 929 -931 0
400 -16 -18 -929 931 0
400 16 -18 929 931 0
400 83 -85 -92 -1300 0
400 83 -85 92 1300 0
400 -83 85 -92 -1300 0
400 -83 85 92 1300 0
400 -83 -85 92 -1300 0
400 83 85 92 -1300 0
400 -83 -85 -92 1300 0
400 83 85 -92 1300 0
400 -31 -36 1040 -1042 0
400 -31 36 1040 1042 0
400 31 -36 -1040 -1042 0
400 31 36 -1040 1042 0
400 -31 36 -1040 -1042 0
400 31 36 1040 -1042 0
400 -31 -36 -1040 1042 0
400 31 -36 1040 1042 0
400 -91 -96 1292 -1294 0
400 -91 96 1292 1294 0
400 91 -96 -1292 -1294 0
400 91 96 -1292 1294 0
400 -91 96 -1292 -1294 0
400 91 96 1292 -1294 0
400 -91 -96 -1292 1294 0
400 91 -96 1292 1294 0
400 -40 -107 1028 -1030 0
400 -40 107 1028 1030 0
400 40 -107 -1028 -1030 0
400 40 107 -1028 1030 0
400 -40 107 -1028 -1030 0
400 40 107 1028 -1030 0
400 -40 -107 -1028 1030 0
400 40 -107 1028 1030 0
400 24 -25 -31 -1027 0
400 24 -25 31 1027 0
400 -24 25 -31 -1027 0
400 -24 25 31 1027 0
400 -24 -25 31 -1027 0
400 24 25 31 -1027 0
400 -24 -25 -31 1027 0
400 24 25 -31 1027 0
400 -97 -110 1287 -1289 0
400 -97 110 1287 1289 0
400 97 -110 -1287 -1289 0
400 97 110 -1287 1289 0
400 -97 110 -1287 -1289 0
400 97 110 1287 -1289 0
400 -97 -110 -1287 1289 0
400 97 -110 1287 1289 0
400 144 -164 -184 -516 0
400 144 -164 184 516 0
400 -144 164 -184 -516 0
400 -144 164 184 516 0
400 -144 -164 184 -516 0
400 144 164 184 -516 0
400 -144 -164 -184 516 0
400 144 164 -184 516 0
400 -201 -222 516 -518 0
400 -201 222 516 518 0
400 201 -222 -516 -518 0
400 201 222 -516 518 0
400 -201 222 -516 -518 0
400 201 222 516 -518 0
400 -201 -222 -516 518 0
400 201 -222 516 518 0
400 -30 -35 1033 -1035 0
400 -30 35 1033 1035 0
400 30 -35 -1033 -1035 0
400 30 35 -1033 1035 0
400 -30 35 -1033 -1035 0
400 30 35 1033 -1035 0
400 -30 -35 -1033 1035 0
400 30 -35 1033 1035 0
400 81 -87 -90 -1286 0
400 81 -87 90 1286 0
400 -81 87 -90 -1286 0
400 -81 87 90 1286 0
400 -81 -87 90 -1286 0
400 81 87 90 -1286 0
400 -81 -87 -90 1286 0
400 81 87 -90 1286 0
400 -203 -221 642 -644 0
400 -203 221 642 644 0
400 203 -221 -642 -644 0
400 203 221 -642 644 0
400 -203 221 -642 -644 0
400 203 221 642 -644 0
400 -203 -221 -642 644 0
400 203 -221 642 644 0
400 -235 -264 881 -883 0
400 -235 264 881 883 0
400 235 -264 -881 -883 0
400 235 264 -881 883 0
400 -235 264 -881 -883 0
400 235 264 881 -883 0
400 -235 -264 -881 883 0
400 235 -264 881 883 0
400 -37 -112 1035 -1037 0
400 -37 112 1035 1037 0
400 37 -112 -1035 -1037 0
400 37 112 -1035 1037 0
400 -37 112 -1035 -1037 0
400 37 112 1035 -1037 0
400 -37 -112 -1035 1037 0
400 37 -112 1035 1037 0
400 -203 -221 782 -784 0
400 -203 221 782 784 0
400 203 -221 -782 -784 0
400 203 221 -782 784 0
400 -203 221 -782 -784 0
400 203 221 782 -784 0
400 -203 -221 -782 784 0
400 203 -221 782 784 0
400 -39 -110 1049 -1051 0
400 -39 110 1049 1051 0
400 39 -110 -1049 -1051 0
400 39 110 -1049 1051 0
400 -39 110 -1049 -1051 0
400 39 110 1049 -1051 0
400 -39 -110 -1049 1051 0
400 39 -110 1049 1051 0
400 84 -85 -91 -1279 0
400 84 -85 91 1279 0
400 -84 85 -91 -1279 0
400 -84 85 91 1279 0
400 -84 -85 91 -1279 0
400 84 85 91 -1279 0
400 -84 -85 -91 1279 0
400 84 85 -91 1279 0
400 -38 -109 1042 -1044 0
400 -38 109 1042 1044 0
400 38 -109 -1042 -1044 0
400 38 109 -1042 1044 0
400 -38 109 -1042 -1044 0
400 38 109 1042 -1044 0
400 -38 -109 -1042 1044 0
400 38 -109 1042 1044 0
400 141 -161 -181 -523 0
400 141 -161 181 523 0
400 -141 161 -181 -523 0
400 -141 161 181 523 0
400 -141 -161 181 -523 0
400 141 161 181 -523 0
400 -141 -161 -181 523 0
400 141 161 -181 523 0
400 -93 -99 1272 -1274 0
400 -93 99 1272 1274 0
400 93 -99 -1272 -1274 0
400 93 99 -1272 1274 0
400 -93 99 -1272 -1274 0
400 93 99 1272 -1274 0
400 -93 -99 -1272 1274 0
400 93 -99 1272 1274 0
400 -198 -220 635 -637 0
400 -198 220 635 637 0
400 198 -220 -635 -637 0
400 198 220 -635 637 0
400 -198 220 -635 -637 0
400 198 220 635 -637 0
400 -198 -220 -635 637 0
400 198 -220 635 637 0
400 -32 -33 1047 -1049 0
400 -32 33 1047 1049 0
400 32 -33 -1047 -1049 0
400 32 33 -1047 1049 0
400 -32 33 -1047 -1049 0
400 32 33 1047 -1049 0
400 -32 -33 -1047 1049 0
400 32 -33 1047 1049 0
400 6 -25 -27 -1486 0
400 6 -25 27 1486 0
400 -6 25 -27 -1486 0
400 -6 25 27 1486 0
400 -6 -25 27 -1486 0
400 6 25 27 -1486 0
400 -6 -25 -27 1486 0
400 6 25 -27 1486 0
400 -223 -225 1866 -1868 0
400 -223 225 1866 1868 0
400 223 -225 -1866 -1868 0
400 223 225 -1866 1868 0
400 -223 225 -1866 -1868 0
400 223 225 1866 -1868 0
400 -223 -225 -1866 1868 0
400 223 -225 1866 1868 0
400 -202 -223 523 -525 0
400 -202 223 523 525 0
400 202 -223 -523 -525 0
400 202 223 -523 525 0
400 -202 223 -523 -525 0
400 202 223 523 -525 0
400 -202 -223 -523 525 0
400 202 -223 523 525 0
400 24 -26 -29 -1055 0
400 24 -26 29 1055 0
400 -24 26 -29 -1055 0
400 -24 26 29 1055 0
400 -24 -26 29 -1055 0
400 24 26 29 -1055 0
400 -24 -26 -29 1055 0
400 24 26 -29 1055 0
400 -89 -96 1264 -1266 0
400 -89 96 1264 1266 0
400 89 -96 -1264 -1266 0
400 89 96 -1264 1266 0
400 -89 96 -1264 -1266 0
400 89 96 1264 -1266 0
400 -89 -96 -1264 1266 0
400 89 -96 1264 1266 0
400 3 -8 -10 -936 0
400 3 -8 10 936 0
400 -3 8 -10 -936 0
400 -3 8 10 936 0
400 -3 -8 10 -936 0
400 3 8 10 -936 0
400 -3 -8 -10 936 0
400 3 8 -10 936 0
400 -226 -241 1868 -1870 0
400 -226 241 1868 1870 0
400 226 -241 -1868 -1870 0
400 226 241 -1868 1870 0
400 -226 241 -1868 -1870 0
400 226 241 1868 -1870 0
400 -226 -241 -1868 1870 0
400 226 -241 1868 1870 0
400 -97 -106 1259 -1261 0
400 -97 106 1259 1261 0
400 97 -106 -1259 -1261 0
400 97 106 -1259 1261 0
400 -97 106 -1259 -1261 0
400 97 106 1259 -1261 0
400 -97 -106 -1259 1261 0
400 97 -106 1259 1261 0
400 6 -7 -8 -1478 0
400 6 -7 8 1478 0
400 -6 7 -8 -1478 0
400 -6 7 8 1478 0
400 -6 -7 8 -1478 0
400 6 7 8 -1478 0
400 -6 -7 -8 1478 0
400 6 7 -8 1478 0
400 81 -86 -92 -1258 0
400 81 -86 92 1258 0
400 -81 86 -92 -1258 0
400 -81 86 92 1258 0
400 -81 -86 92 -1258 0
400 81 86 92 -1258 0
400 -81 -86 -92 1258 0
400 81 86 -92 1258 0
400 -178 -197 627 -629 0
400 -178 197 627 629 0
400 178 -197 -627 -629 0
400 178 197 -627 629 0
400 -178 197 -627 -629 0
400 178 197 627 -629 0
400 -178 -197 -627 629 0
400 178 -197 627 629 0
400 -194 -213 739 -741 0
400 -194 213 739 741 0
400 194 -213 -739 -741 0
400 194 213 -739 741 0
400 -194 213 -739 -741 0
400 194 213 739 -741 0
400 -194 -213 -739 741 0
400 194 -213 739 741 0
400 -182 -183 1821 -1823 0
400 -182 183 1821 1823 0
400 182 -183 -1821 -1823 0
400 182 183 -1821 1823 0
400 -182 183 -1821 -1823 0
400 182 183 1821 -1823 0
400 -182 -183 -1821 1823 0
400 182 -183 1821 1823 0
400 -94 -99 1251 -1253 0
400 -94 99 1251 1253 0
400 94 -99 -1251 -1253 0
400 94 99 -1251 1253 0
400 -94 99 -1251 -1253 0
400 94 99 1251 -1253 0
400 -94 -99 -1251 1253 0
400 94 -99 1251 1253 0
400 -40 -111 1056 -1058 0
400 -40 111 1056 1058 0
400 40 -111 -1056 -1058 0
400 40 111 -1056 1058 0
400 -40 111 -1056 -1058 0
400 40 111 1056 -1058 0
400 -40 -111 -1056 1058 0
400 40 -111 1056 1058 0
400 146 -166 -186 -530 0
400 146 -166 186 530 0
400 -146 166 -186 -530 0
400 -146 166 186 530 0
400 -146 -166 186 -530 0
400 146 166 186 -530 0
400 -146 -166 -186 530 0
400 146 166 -186 530 0
400 -55 -60 1062 -1064 0
400 -55 60 1062 1064 0
400 55 -60 -1062 -1064 0
400 55 60 -1062 1064 0
400 -55 60 -1062 -1064 0
400 55 60 1062 -1064 0
400 -55 -60 -1062 1064 0
400 55 -60 1062 1064 0
400 -207 -228 530 -532 0
400 -207 228 530 532 0
400 207 -228 -530 -532 0
400 207 228 -530 532 0
400 -207 228 -530 -532 0
400 207 228 530 -532 0
400 -207 -228 -530 532 0
400 207 -228 530 532 0
400 42 -46 -50 -1062 0
400 42 -46 50 1062 0
400 -42 46 -50 -1062 0
400 -42 46 50 1062 0
400 -42 -46 50 -1062 0
400 42 46 50 -1062 0
400 -42 -46 -50 1062 0
400 42 46 -50 1062 0
400 -45 -46 1480 -1482 0
400 -45 46 1480 1482 0
400 45 -46 -1480 -1482 0
400 45 46 -1480 1482 0
400 -45 46 -1480 -1482 0
400 45 46 1480 -1482 0
400 -45 -46 -1480 1482 0
400 45 -46 1480 1482 0
400 -98 -104 1245 -1247 0
400 -98 104 1245 1247 0
400 98 -104 -1245 -1247 0
400 98 104 -1245 1247 0
400 -98 104 -1245 -1247 0
400 98 104 1245 -1247 0
400 -98 -104 -1245 1247 0
400 98 -104 1245 1247 0
400 -92 -93 1243 -1245 0
400 -92 93 1243 1245 0
400 92 -93 -1243 -1245 0
400 92 93 -1243 1245 0
400 -92 93 -1243 -1245 0
400 92 93 1243 -1245 0
400 -92 -93 -1243 1245 0
400 92 -93 1243 1245 0
400 -57 -101 1070 -1072 0
400 -57 101 1070 1072 0
400 57 -101 -1070 -1072 0
400 57 101 -1070 1072 0
400 -57 101 -1070 -1072 0
400 57 101 1070 -1072 0
400 -57 -101 -1070 1072 0
400 57 -101 1070 1072 0
400 43 -47 -51 -1069 0
400 43 -47 51 1069 0
400 -43 47 -51 -1069 0
400 -43 47 51 1069 0
400 -43 -47 51 -1069 0
400 43 47 51 -1069 0
400 -43 -47 -51 1069 0
400 43 47 -51 1069 0
400 138 -159 -177 -621 0
400 138 -159 177 621 0
400 -138 159 -177 -621 0
400 -138 159 177 621 0
400 -138 -159 177 -621 0
400 138 159 177 -621 0
400 -138 -159 -177 621 0
400 138 159 -177 621 0
400 -226 -227 1849 -1851 0
400 -226 227 1849 1851 0
400 226 -227 -1849 -1851 0
400 226 227 -1849 1851 0
400 -226 227 -1849 -1851 0
400 226 227 1849 -1851 0
400 -226 -227 -1849 1851 0
400 226 -227 1849 1851 0
400 -91 -96 1236 -1238 0
400 -91 96 1236 1238 0
400 91 -96 -1236 -1238 0
400 91 96 -1236 1238 0
400 -91 96 -1236 -1238 0
400 91 96 1236 -1238 0
400 -91 -96 -1236 1238 0
400 91 -96 1236 1238 0
400 -53 -58 1076 -1078 0
400 -53 58 1076 1078 0
400 53 -58 -1076 -1078 0
400 53 58 -1076 1078 0
400 -53 58 -1076 -1078 0
400 53 58 1076 -1078 0
400 -53 -58 -1076 1078 0
400 53 -58 1076 1078 0
400 147 -167 -187 -537 0
400 147 -167 187 537 0
400 -147 167 -187 -537 0
400 -147 167 187 537 0
400 -147 -167 187 -537 0
400 147 167 187 -537 0
400 -147 -167 -187 537 0
400 147 167 -187 537 0
400 44 -48 -52 -1076 0
400 44 -48 52 1076 0
400 -44 48 -52 -1076 0
400 -44 48 52 1076 0
400 -44 -48 52 -1076 0
400 44 48 52 -1076 0
400 -44 -48 -52 1076 0
400 44 48 -52 1076 0
400 -217 -252 615 -617 0
400 -217 252 615 617 0
400 217 -252 -615 -617 0
400 217 252 -615 617 0
400 -217 252 -615 -617 0
400 217 252 615 -617 0
400 -217 -252 -615 617 0
400 217 -252 615 617 0
400 -49 -54 1082 -1084 0
400 -49 54 1082 1084 0
400 49 -54 -1082 -1084 0
400 49 54 -1082 1084 0
400 -49 54 -1082 -1084 0
400 49 54 1082 -1084 0
400 -49 -54 -1082 1084 0
400 49 -54 1082 1084 0
400 -208 -225 537 -539 0
400 -208 225 537 539 0
400 208 -225 -537 -539 0
400 208 225 -537 539 0
400 -208 225 -537 -539 0
400 208 225 537 -539 0
400 -208 -225 -537 539 0
400 208 -225 537 539 0
400 82 -86 -90 -1230 0
400 82 -86 90 1230 0
400 -82 86 -90 -1230 0
400 -82 86 90 1230 0
400 -82 -86 90 -1230 0
400 82 86 90 -1230 0
400 -82 -86 -90 1230 0
400 82 86 -90 1230 0
400 -180 -199 613 -615 0
400 -180 199 613 615 0
400 180 -199 -613 -615 0
400 180 199 -613 615 0
400 -180 199 -613 -615 0
400 180 199 613 -615 0
400 -180 -199 -613 615 0
400 180 -199 613 615 0
400 -147 -157 1858 -1860 0
400 -147 157 1858 1860 0
400 147 -157 -1858 -1860 0
400 147 157 -1858 1860 0
400 -147 157 -1858 -1860 0
400 147 157 1858 -1860 0
400 -147 -157 -1858 1860 0
400 147 -157 1858 1860 0
400 -74 -80 1223 -1225 0
400 -74 80 1223 1225 0
400 74 -80 -1223 -1225 0
400 74 80 -1223 1225 0
400 -74 80 -1223 -1225 0
400 74 80 1223 -1225 0
400 -74 -80 -1223 1225 0
400 74 -80 1223 1225 0
400 -59 -103 1084 -1086 0
400 -59 103 1084 1086 0
400 59 -103 -1084 -1086 0
400 59 103 -1084 1086 0
400 -59 103 -1084 -1086 0
400 59 103 1084 -1086 0
400 -59 -103 -1084 1086 0
400 59 -103 1084 1086 0
400 -166 -219 1862 -1864 0
400 -166 219 1862 1864 0
400 166 -219 -1862 -1864 0
400 166 219 -1862 1864 0
400 -166 219 -1862 -1864 0
400 166 219 1862 -1864 0
400 -166 -219 -1862 1864 0
400 166 -219 1862 1864 0
400 148 -168 -188 -544 0
400 148 -168 188 544 0
400 -148 168 -188 -544 0
400 -148 168 188 544 0
400 -148 -168 188 -544 0
400 148 168 188 -544 0
400 -148 -168 -188 544 0
400 148 168 -188 544 0
400 -72 -73 1215 -1217 0
400 -72 73 1215 1217 0
400 72 -73 -1215 -1217 0
400 72 73 -1215 1217 0
400 -72 73 -1215 -1217 0
400 72 73 1215 -1217 0
400 -72 -73 -1215 1217 0
400 72 -73 1215 1217 0
400 -52 -55 1089 -1091 0
400 -52 55 1089 1091 0
400 52 -55 -1089 -1091 0
400 52 55 -1089 1091 0
400 -52 55 -1089 -1091 0
400 52 55 1089 -1091 0
400 -52 -55 -1089 1091 0
400 52 -55 1089 1091 0
400 -205 -226 544 -546 0
400 -205 226 544 546 0
400 205 -226 -544 -546 0
400 205 226 -544 546 0
400 -205 226 -544 -546 0
400 205 226 544 -546 0
400 -205 -226 -544 546 0
400 205 -226 544 546 0
400 137 -138 -139 -1856 0
400 137 -138 139 1856 0
400 -137 138 -139 -1856 0
400 -137 138 139 1856 0
400 -137 -138 139 -1856 0
400 137 138 139 -1856 0
400 -137 -138 -139 1856 0
400 137 138 -139 1856 0
400 153 -173 -193 -607 0
400 153 -173 193 607 0
400 -153 173 -193 -607 0
400 -153 173 193 607 0
400 -153 -173 193 -607 0
400 153 173 193 -607 0
400 -153 -173 -193 607 0
400 153 173 -193 607 0
400 -71 -76 1208 -1210 0
400 -71 76 1208 1210 0
400 71 -76 -1208 -1210 0
400 71 76 -1208 1210 0
400 -71 76 -1208 -1210 0
400 71 76 1208 -1210 0
400 -71 -76 -1208 1210 0
400 71 -76 1208 1210 0
400 -57 -108 1091 -1093 0
400 -57 108 1091 1093 0
400 57 -108 -1091 -1093 0
400 57 108 -1091 1093 0
400 -57 108 -1091 -1093 0
400 57 108 1091 -1093 0
400 -57 -108 -1091 1093 0
400 57 -108 1091 1093 0
400 -165 -166 1673 -1675 0
400 -165 166 1673 1675 0
400 165 -166 -1673 -1675 0
400 165 166 -1673 1675 0
400 -165 166 -1673 -1675 0
400 165 166 1673 -1675 0
400 -165 -166 -1673 1675 0
400 165 -166 1673 1675 0
400 42 -47 -49 -1097 0
400 42 -47 49 1097 0
400 -42 47 -49 -1097 0
400 -42 47 49 1097 0
400 -42 -47 49 -1097 0
400 42 47 49 -1097 0
400 -42 -47 -49 1097 0
400 42 47 -49 1097 0
400 61 -67 -70 -1202 0
400 61 -67 70 1202 0
400 -61 67 -70 -1202 0
400 -61 67 70 1202 0
400 -61 -67 70 -1202 0
400 61 67 70 -1202 0
400 -61 -67 -70 1202 0
400 61 67 -70 1202 0
400 -196 -213 599 -601 0
400 -196 213 599 601 0
400 196 -213 -599 -601 0
400 196 213 -599 601 0
400 -196 213 -599 -601 0
400 196 213 599 -601 0
400 -196 -213 -599 601 0
400 196 -213 599 601 0
400 -58 -105 1098 -1100 0
400 -58 105 1098 1100 0
400 58 -105 -1098 -1100 0
400 58 105 -1098 1100 0
400 -58 105 -1098 -1100 0
400 58 105 1098 -1100 0
400 -58 -105 -1098 1100 0
400 58 -105 1098 1100 0
400 145 -165 -185 -551 0
400 145 -165 185 551 0
400 -145 165 -185 -551 0
400 -145 165 185 551 0
400 -145 -165 185 -551 0
400 145 165 185 -551 0
400 -145 -165 -185 551 0
400 145 165 -185 551 0
400 43 -48 -50 -1104 0
400 43 -48 50 1104 0
400 -43 48 -50 -1104 0
400 -43 48 50 1104 0
400 -43 -48 50 -1104 0
400 43 48 50 -1104 0
400 -43 -48 -50 1104 0
400 43 48 -50 1104 0
400 -74 -80 1195 -1197 0
400 -74 80 1195 1197 0
400 74 -80 -1195 -1197 0
400 74 80 -1195 1197 0
400 -74 80 -1195 -1197 0
400 74 80 1195 -1197 0
400 -74 -80 -1195 1197 0
400 74 -80 1195 1197 0
400 -227 -239 552 -554 0
400 -227 239 552 554 0
400 227 -239 -552 -554 0
400 227 239 -552 554 0
400 -227 239 -552 -554 0
400 227 239 552 -554 0
400 -227 -239 -552 554 0
400 227 -239 552 554 0
400 64 -65 -71 -1195 0
400 64 -65 71 1195 0
400 -64 65 -71 -1195 0
400 -64 65 71 1195 0
400 -64 -65 71 -1195 0
400 64 65 71 -1195 0
400 -64 -65 -71 1195 0
400 64 65 -71 1195 0
400 -59 -106 1105 -1107 0
400 -59 106 1105 1107 0
400 59 -106 -1105 -1107 0
400 59 106 -1105 1107 0
400 -59 106 -1105 -1107 0
400 59 106 1105 -1107 0
400 -59 -106 -1105 1107 0
400 59 -106 1105 1107 0
400 -70 -73 1187 -1189 0
400 -70 73 1187 1189 0
400 70 -73 -1187 -1189 0
400 70 73 -1187 1189 0
400 -70 73 -1187 -1189 0
400 70 73 1187 -1189 0
400 -70 -73 -1187 1189 0
400 70 -73 1187 1189 0
400 -233 -239 594 -596 0
400 -233 239 594 596 0
400 233 -239 -594 -596 0
400 233 239 -594 596 0
400 -233 239 -594 -596 0
400 233 239 594 -596 0
400 -233 -239 -594 596 0
400 233 -239 594 596 0
400 -191 -212 844 -846 0
400 -191 212 844 846 0
400 191 -212 -844 -846 0
400 191 212 -844 846 0
400 -191 212 -844 -846 0
400 191 212 844 -846 0
400 -191 -212 -844 846 0
400 191 -212 844 846 0
400 2 -7 -9 -929 0
400 2 -7 9 929 0
400 -2 7 -9 -929 0
400 -2 7 9 929 0
400 -2 -7 9 -929 0
400 2 7 9 -929 0
400 -2 -7 -9 929 0
400 2 7 -9 929 0
400 -51 -54 1110 -1112 0
400 -51 54 1110 1112 0
400 51 -54 -1110 -1112 0
400 51 54 -1110 1112 0
400 -51 54 -1110 -1112 0
400 51 54 1110 -1112 0
400 -51 -54 -1110 1112 0
400 51 -54 1110 1112 0
400 -46 -47 1472 -1474 0
400 -46 47 1472 1474 0
400 46 -47 -1472 -1474 0
400 46 47 -1472 1474 0
400 -46 47 -1472 -1474 0
400 46 47 1472 -1474 0
400 -46 -47 -1472 1474 0
400 46 -47 1472 1474 0
400 -76 -78 1181 -1183 0
400 -76 78 1181 1183 0
400 76 -78 -1181 -1183 0
400 76 78 -1181 1183 0
400 -76 78 -1181 -1183 0
400 76 78 1181 -1183 0
400 -76 -78 -1181 1183 0
400 76 -78 1181 1183 0
400 150 -170 -190 -558 0
400 150 -170 190 558 0
400 -150 170 -190 -558 0
400 -150 170 190 558 0
400 -150 -170 190 -558 0
400 150 170 190 -558 0
400 -150 -170 -190 558 0
400 150 170 -190 558 0
400 62 -67 -69 -1181 0
400 62 -67 69 1181 0
400 -62 67 -69 -1181 0
400 -62 67 69 1181 0
400 -62 -67 69 -1181 0
400 62 67 69 -1181 0
400 -62 -67 -69 1181 0
400 62 67 -69 1181 0
400 -60 -107 1112 -1114 0
400 -60 107 1112 1114 0
400 60 -107 -1112 -1114 0
400 60 107 -1112 1114 0
400 -60 107 -1112 -1114 0
400 60 107 1112 -1114 0
400 -60 -107 -1112 1114 0
400 60 -107 1112 1114 0
400 41 -47 -50 -1118 0
400 41 -47 50 1118 0
400 -41 47 -50 -1118 0
400 -41 47 50 1118 0
400 -41 -47 50 -1118 0
400 41 47 50 -1118 0
400 -41 -47 -50 1118 0
400 41 47 -50 1118 0
400 -55 -57 1118 -1120 0
400 -55 57 1118 1120 0
400 55 -57 -1118 -1120 0
400 55 57 -1118 1120 0
400 -55 57 -1118 -1120 0
400 55 57 1118 -1120 0
400 -55 -57 -1118 1120 0
400 55 -57 1118 1120 0
400 61 -66 -72 -1174 0
400 61 -66 72 1174 0
400 -61 66 -72 -1174 0
400 -61 66 72 1174 0
400 -61 -66 72 -1174 0
400 61 66 72 -1174 0
400 -61 -66 -72 1174 0
400 61 66 -72 1174 0
400 -215 -236 586 -588 0
400 -215 236 586 588 0
400 215 -236 -586 -588 0
400 215 236 -586 588 0
400 -215 236 -586 -588 0
400 215 236 586 -588 0
400 -215 -236 -586 588 0
400 215 -236 586 588 0
400 -75 -77 1174 -1176 0
400 -75 77 1174 1176 0
400 75 -77 -1174 -1176 0
400 75 77 -1174 1176 0
400 -75 77 -1174 -1176 0
400 75 77 1174 -1176 0
400 -75 -77 -1174 1176 0
400 75 -77 1174 1176 0
400 -211 -232 558 -560 0
400 -211 232 558 560 0
400 211 -232 -558 -560 0
400 211 232 -558 560 0
400 -211 232 -558 -560 0
400 211 232 558 -560 0
400 -211 -232 -558 560 0
400 211 -232 558 560 0
400 -193 -216 732 -734 0
400 -193 216 732 734 0
400 193 -216 -732 -734 0
400 193 216 -732 734 0
400 -193 216 -732 -734 0
400 193 216 732 -734 0
400 -193 -216 -732 734 0
400 193 -216 732 734 0
400 -74 -79 1167 -1169 0
400 -74 79 1167 1169 0
400 74 -79 -1167 -1169 0
400 74 79 -1167 1169 0
400 -74 79 -1167 -1169 0
400 74 79 1167 -1169 0
400 -74 -79 -1167 1169 0
400 74 -79 1167 1169 0
400 61 -65 -69 -1167 0
400 61 -65 69 1167 0
400 -61 65 -69 -1167 0
400 -61 65 69 1167 0
400 -61 -65 69 -1167 0
400 61 65 69 -1167 0
400 -61 -65 -69 1167 0
400 61 65 -69 1167 0
400 -7 -25 1469 -1471 0
400 -7 25 1469 1471 0
400 7 -25 -1469 -1471 0
400 7 25 -1469 1471 0
400 -7 25 -1469 -1471 0
400 7 25 1469 -1471 0
400 -7 -25 -1469 1471 0
400 7 -25 1469 1471 0
400 -161 -162 1691 -1693 0
400 -161 162 1691 1693 0
400 161 -162 -1691 -1693 0
400 161 162 -1691 1693 0
400 -161 162 -1691 -1693 0
400 161 162 1691 -1693 0
400 -161 -162 -1691 1693 0
400 161 -162 1691 1693 0
400 -73 -78 1160 -1162 0
400 -73 78 1160 1162 0
400 73 -78 -1160 -1162 0
400 73 78 -1160 1162 0
400 -73 78 -1160 -1162 0
400 73 78 1160 -1162 0
400 -73 -78 -1160 1162 0
400 73 -78 1160 1162 0
400 -210 -231 579 -581 0
400 -210 231 579 581 0
400 210 -231 -579 -581 0
400 210 231 -579 581 0
400 -210 231 -579 -581 0
400 210 231 579 -581 0
400 -210 -231 -579 581 0
400 210 -231 579 581 0
400 -162 -163 1685 -1687 0
400 -162 163 1685 1687 0
400 162 -163 -1685 -1687 0
400 162 163 -1685 1687 0
400 -162 163 -1685 -1687 0
400 162 163 1685 -1687 0
400 -162 -163 -1685 1687 0
400 162 -163 1685 1687 0
400 149 -169 -189 -579 0
400 149 -169 189 579 0
400 -149 169 -189 -579 0
400 -149 169 189 579 0
400 -149 -169 189 -579 0
400 149 169 189 -579 0
400 -149 -169 -189 579 0
400 149 169 -189 579 0
400 -58 -109 1126 -1128 0
400 -58 109 1126 1128 0
400 58 -109 -1126 -1128 0
400 58 109 -1126 1128 0
400 -58 109 -1126 -1128 0
400 58 109 1126 -1128 0
400 -58 -109 -1126 1128 0
400 58 -109 1126 1128 0
400 42 -48 -51 -1125 0
400 42 -48 51 1125 0
400 -42 48 -51 -1125 0
400 -42 48 51 1125 0
400 -42 -48 51 -1125 0
400 42 48 51 -1125 0
400 -42 -48 -51 1125 0
400 42 48 -51 1125 0
400 -191 -212 564 -566 0
400 -191 212 564 566 0
400 191 -212 -564 -566 0
400 191 212 -564 566 0
400 -191 212 -564 -566 0
400 191 212 564 -566 0
400 -191 -212 -564 566 0
400 191 -212 564 566 0
400 43 -45 -52 -1132 0
400 43 -45 52 1132 0
400 -43 45 -52 -1132 0
400 -43 45 52 1132 0
400 -43 -45 52 -1132 0
400 43 45 52 -1132 0
400 -43 -45 -52 1132 0
400 43 45 -52 1132 0
400 157 -160 -161 -1680 0
400 157 -160 161 1680 0
400 -157 160 -161 -1680 0
400 -157 160 161 1680 0
400 -157 -160 161 -1680 0
400 157 160 161 -1680 0
400 -157 -160 -161 1680 0
400 157 160 -161 1680 0
400 -165 -166 1693 -1695 0
400 -165 166 1693 1695 0
400 165 -166 -1693 -1695 0
400 165 166 -1693 1695 0
400 -165 166 -1693 -1695 0
400 165 166 1693 -1695 0
400 -165 -166 -1693 1695 0
400 165 -166 1693 1695 0
400 62 -66 -70 -1146 0
400 62 -66 70 1146 0
400 -62 66 -70 -1146 0
400 -62 66 70 1146 0
400 -62 -66 70 -1146 0
400 62 66 70 -1146 0
400 -62 -66 -70 1146 0
400 62 66 -70 1146 0
400 -192 -209 571 -573 0
400 -192 209 571 573 0
400 192 -209 -571 -573 0
400 192 209 -571 573 0
400 -192 209 -571 -573 0
400 192 209 571 -573 0
400 -192 -209 -571 573 0
400 192 -209 571 573 0
400 -53 -59 1132 -1134 0
400 -53 59 1132 1134 0
400 53 -59 -1132 -1134 0
400 53 59 -1132 1134 0
400 -53 59 -1132 -1134 0
400 53 59 1132 -1134 0
400 -53 -59 -1132 1134 0
400 53 -59 1132 1134 0
400 -229 -240 566 -568 0
400 -229 240 566 568 0
400 229 -240 -566 -568 0
400 229 240 -566 568 0
400 -229 240 -566 -568 0
400 229 240 566 -568 0
400 -229 -240 -566 568 0
400 229 -240 566 568 0
400 -190 -211 837 -839 0
400 -190 211 837 839 0
400 190 -211 -837 -839 0
400 190 211 -837 839 0
400 -190 211 -837 -839 0
400 190 211 837 -839 0
400 -190 -211 -837 839 0
400 190 -211 837 839 0
400 -17 -108 923 -925 0
400 -17 108 923 925 0
400 17 -108 -923 -925 0
400 17 108 -923 925 0
400 -17 108 -923 -925 0
400 17 108 923 -925 0
400 -17 -108 -923 925 0
400 17 -108 923 925 0
400 -49 -54 1138 -1140 0
400 -49 54 1138 1140 0
400 49 -54 -1138 -1140 0
400 49 54 -1138 1140 0
400 -49 54 -1138 -1140 0
400 49 54 1138 -1140 0
400 -49 -54 -1138 1140 0
400 49 -54 1138 1140 0
400 -234 -251 734 -736 0
400 -234 251 734 736 0
400 234 -251 -734 -736 0
400 234 251 -734 736 0
400 -234 251 -734 -736 0
400 234 251 734 -736 0
400 -234 -251 -734 736 0
400 234 -251 734 736 0
400 -60 -111 1140 -1142 0
400 -60 111 1140 1142 0
400 60 -111 -1140 -1142 0
400 60 111 -1140 1142 0
400 -60 111 -1140 -1142 0
400 60 111 1140 -1142 0
400 -60 -111 -1140 1142 0
400 60 -111 1140 1142 0
400 -229 -263 839 -841 0
400 -229 263 839 841 0
400 229 -263 -839 -841 0
400 229 263 -839 841 0
400 -229 263 -839 -841 0
400 229 263 839 -841 0
400 -229 -263 -839 841 0
400 229 -263 839 841 0
400 -41 -42 1464 -1466 0
400 -41 42 1464 1466 0
400 41 -42 -1464 -1466 0
400 41 42 -1464 1466 0
400 -41 42 -1464 -1466 0
400 41 42 1464 -1466 0
400 -41 -42 -1464 1466 0
400 41 -42 1464 1466 0
400 -75 -80 1146 -1148 0
400 -75 80 1146 1148 0
400 75 -80 -1146 -1148 0
400 75 80 -1146 1148 0
400 -75 80 -1146 -1148 0
400 75 80 1146 -1148 0
400 -75 -80 -1146 1148 0
400 75 -80 1146 1148 0
400 -230 -237 573 -575 0
400 -230 237 573 575 0
400 230 -237 -573 -575 0
400 230 237 -573 575 0
400 -230 237 -573 -575 0
400 230 237 573 -575 0
400 -230 -237 -573 575 0
400 230 -237 573 575 0
400 153 -174 -196 -726 0
400 153 -174 196 726 0
400 -153 174 -196 -726 0
400 -153 174 196 726 0
400 -153 -174 196 -726 0
400 153 174 196 -726 0
400 -153 -174 -196 726 0
400 153 174 -196 726 0
400 -233 -250 727 -729 0
400 -233 250 727 729 0
400 233 -250 -727 -729 0
400 233 250 -727 729 0
400 -233 250 -727 -729 0
400 233 250 727 -729 0
400 -233 -250 -727 729 0
400 233 -250 727 729 0
400 1 -6 -12 -922 0
400 1 -6 12 922 0
400 -1 6 -12 -922 0
400 -1 6 12 922 0
400 -1 -6 12 -922 0
400 1 6 12 -922 0
400 -1 -6 -12 922 0
400 1 6 -12 922 0
400 64 -68 -72 -1160 0
400 64 -68 72 1160 0
400 -64 68 -72 -1160 0
400 -64 68 72 1160 0
400 -64 -68 72 -1160 0
400 64 68 72 -1160 0
400 -64 -68 -72 1160 0
400 64 68 -72 1160 0
400 63 -67 -71 -1153 0
400 63 -67 71 1153 0
400 -63 67 -71 -1153 0
400 -63 67 71 1153 0
400 -63 -67 71 -1153 0
400 63 67 71 -1153 0
400 -63 -67 -71 1153 0
400 63 67 -71 1153 0
400 -76 -77 1153 -1155 0
400 -76 77 1153 1155 0
400 76 -77 -1153 -1155 0
400 76 77 -1153 1155 0
400 -76 77 -1153 -1155 0
400 76 77 1153 -1155 0
400 -76 -77 -1153 1155 0
400 76 -77 1153 1155 0
400 -14 -19 915 -917 0
400 -14 19 915 917 0
400 14 -19 -915 -917 0
400 14 19 -915 917 0
400 -14 19 -915 -917 0
400 14 19 915 -917 0
400 -14 -19 -915 917 0
400 14 -19 915 917 0
400 -143 -145 1657 -1659 0
400 -143 145 1657 1659 0
400 143 -145 -1657 -1659 0
400 143 145 -1657 1659 0
400 -143 145 -1657 -1659 0
400 143 145 1657 -1659 0
400 -143 -145 -1657 1659 0
400 143 -145 1657 1659 0
400 2 -21 -23 -1458 0
400 2 -21 23 1458 0
400 -2 21 -23 -1458 0
400 -2 21 23 1458 0
400 -2 -21 23 -1458 0
400 2 21 23 -1458 0
400 -2 -21 -23 1458 0
400 2 21 -23 1458 0
400 -219 -221 1845 -1847 0
400 -219 221 1845 1847 0
400 219 -221 -1845 -1847 0
400 219 221 -1845 1847 0
400 -219 221 -1845 -1847 0
400 219 221 1845 -1847 0
400 -219 -221 -1845 1847 0
400 219 -221 1845 1847 0
400 154 -174 -194 -586 0
400 154 -174 194 586 0
400 -154 174 -194 -586 0
400 -154 174 194 586 0
400 -154 -174 194 -586 0
400 154 174 194 -586 0
400 -154 -174 -194 586 0
400 154 174 -194 586 0
400 -18 -102 909 -911 0
400 -18 102 909 911 0
400 18 -102 -909 -911 0
400 18 102 -909 911 0
400 -18 102 -909 -911 0
400 18 102 909 -911 0
400 -18 -102 -909 911 0
400 18 -102 909 911 0
400 3 -21 -23 -1464 0
400 3 -21 23 1464 0
400 -3 21 -23 -1464 0
400 -3 21 23 1464 0
400 -3 -21 23 -1464 0
400 3 21 23 -1464 0
400 -3 -21 -23 1464 0
400 3 21 -23 1464 0
400 157 -158 -159 -1672 0
400 157 -158 159 1672 0
400 -157 158 -159 -1672 0
400 -157 158 159 1672 0
400 -157 -158 159 -1672 0
400 157 158 159 -1672 0
400 -157 -158 -159 1672 0
400 157 158 -159 1672 0
400 2 -3 -4 -1450 0
400 2 -3 4 1450 0
400 -2 3 -4 -1450 0
400 -2 3 4 1450 0
400 -2 -3 4 -1450 0
400 2 3 4 -1450 0
400 -2 -3 -4 1450 0
400 2 3 -4 1450 0
400 -206 -228 831 -833 0
400 -206 228 831 833 0
400 206 -228 -831 -833 0
400 206 228 -831 833 0
400 -206 228 -831 -833 0
400 206 228 831 -833 0
400 -206 -228 -831 833 0
400 206 -228 831 833 0
400 -195 -216 592 -594 0
400 -195 216 592 594 0
400 195 -216 -592 -594 0
400 195 216 -592 594 0
400 -195 216 -592 -594 0
400 195 216 592 -594 0
400 -195 -216 -592 594 0
400 195 -216 592 594 0
400 -79 -105 1189 -1191 0
400 -79 105 1189 1191 0
400 79 -105 -1189 -1191 0
400 79 105 -1189 1191 0
400 -79 105 -1189 -1191 0
400 79 105 1189 -1191 0
400 -79 -105 -1189 1191 0
400 79 -105 1189 1191 0
400 148 -166 -185 -831 0
400 148 -166 185 831 0
400 -148 166 -185 -831 0
400 -148 166 185 831 0
400 -148 -166 185 -831 0
400 148 166 185 -831 0
400 -148 -166 -185 831 0
400 148 166 -185 831 0
400 -217 -218 1843 -1845 0
400 -217 218 1843 1845 0
400 217 -218 -1843 -1845 0
400 217 218 -1843 1845 0
400 -217 218 -1843 -1845 0
400 217 218 1843 -1845 0
400 -217 -218 -1843 1845 0
400 217 -218 1843 1845 0
400 137 -142 -143 -1836 0
400 137 -142 143 1836 0
400 -137 142 -143 -1836 0
400 -137 142 143 1836 0
400 -137 -142 143 -1836 0
400 137 142 143 -1836 0
400 -137 -142 -143 1836 0
400 137 142 -143 1836 0
400 -159 -160 1663 -1665 0
400 -159 160 1663 1665 0
400 159 -160 -1663 -1665 0
400 159 160 -1663 1665 0
400 -159 160 -1663 -1665 0
400 159 160 1663 -1665 0
400 -159 -160 -1663 1665 0
400 159 -160 1663 1665 0
400 -234 -263 874 -876 0
400 -234 263 874 876 0
400 234 -263 -874 -876 0
400 234 263 -874 876 0
400 -234 263 -874 -876 0
400 234 263 874 -876 0
400 -234 -263 -874 876 0
400 234 -263 874 876 0
400 -160 -161 1839 -1841 0
400 -160 161 1839 1841 0
400 160 -161 -1839 -1841 0
400 160 161 -1839 1841 0
400 -160 161 -1839 -1841 0
400 160 161 1839 -1841 0
400 -160 -161 -1839 1841 0
400 160 -161 1839 1841 0
400 -75 -77 1202 -1204 0
400 -75 77 1202 1204 0
400 75 -77 -1202 -1204 0
400 75 77 -1202 1204 0
400 -75 77 -1202 -1204 0
400 75 77 1202 -1204 0
400 -75 -77 -1202 1204 0
400 75 -77 1202 1204 0
400 -234 -240 601 -603 0
400 -234 240 601 603 0
400 234 -240 -601 -603 0
400 234 240 -601 603 0
400 -234 240 -601 -603 0
400 234 240 601 -603 0
400 -234 -240 -601 603 0
400 234 -240 601 603 0
400 -23 -41 1451 -1453 0
400 -23 41 1451 1453 0
400 23 -41 -1451 -1453 0
400 23 41 -1451 1453 0
400 -23 41 -1451 -1453 0
400 23 41 1451 -1453 0
400 -23 -41 -1451 1453 0
400 23 -41 1451 1453 0
400 -78 -112 1210 -1212 0
400 -78 112 1210 1212 0
400 78 -112 -1210 -1212 0
400 78 112 -1210 1212 0
400 -78 112 -1210 -1212 0
400 78 112 1210 -1212 0
400 -78 -112 -1210 1212 0
400 78 -112 1210 1212 0
400 -145 -157 1836 -1838 0
400 -145 157 1836 1838 0
400 145 -157 -1836 -1838 0
400 145 157 -1836 1838 0
400 -145 157 -1836 -1838 0
400 145 157 1836 -1838 0
400 -145 -157 -1836 1838 0
400 145 -157 1836 1838 0
400 152 -169 -191 -719 0
400 152 -169 191 719 0
400 -152 169 -191 -719 0
400 -152 169 191 719 0
400 -152 -169 191 -719 0
400 152 169 191 -719 0
400 -152 -169 -191 719 0
400 152 169 -191 719 0
400 138 -141 -143 -1652 0
400 138 -141 143 1652 0
400 -138 141 -143 -1652 0
400 -138 141 143 1652 0
400 -138 -141 143 -1652 0
400 138 141 143 -1652 0
400 -138 -141 -143 1652 0
400 138 141 -143 1652 0
400 -79 -109 1217 -1219 0
400 -79 109 1217 1219 0
400 79 -109 -1217 -1219 0
400 79 109 -1217 1219 0
400 -79 109 -1217 -1219 0
400 79 109 1217 -1219 0
400 -79 -109 -1217 1219 0
400 79 -109 1217 1219 0
400 -235 -237 608 -610 0
400 -235 237 608 610 0
400 235 -237 -608 -610 0
400 235 237 -608 610 0
400 -235 237 -608 -610 0
400 235 237 608 -610 0
400 -235 -237 -608 610 0
400 235 -237 608 610 0
400 64 -66 -69 -1223 0
400 64 -66 69 1223 0
400 -64 66 -69 -1223 0
400 -64 66 69 1223 0
400 -64 -66 69 -1223 0
400 64 66 69 -1223 0
400 -64 -66 -69 1223 0
400 64 66 -69 1223 0
400 -146 -147 1638 -1640 0
400 -146 147 1638 1640 0
400 146 -147 -1638 -1640 0
400 146 147 -1638 1640 0
400 -146 147 -1638 -1640 0
400 146 147 1638 -1640 0
400 -146 -147 -1638 1640 0
400 146 -147 1638 1640 0
400 -95 -100 1230 -1232 0
400 -95 100 1230 1232 0
400 95 -100 -1230 -1232 0
400 95 100 -1230 1232 0
400 -95 100 -1230 -1232 0
400 95 100 1230 -1232 0
400 -95 -100 -1230 1232 0
400 95 -100 1230 1232 0
400 -42 -43 1444 -1446 0
400 -42 43 1444 1446 0
400 42 -43 -1444 -1446 0
400 42 43 -1444 1446 0
400 -42 43 -1444 -1446 0
400 42 43 1444 -1446 0
400 -42 -43 -1444 1446 0
400 42 -43 1444 1446 0
400 1 -5 -9 -915 0
400 1 -5 9 915 0
400 -1 5 -9 -915 0
400 -1 5 9 915 0
400 -1 -5 9 -915 0
400 1 5 9 -915 0
400 -1 -5 -9 915 0
400 1 5 -9 915 0
400 -97 -103 1238 -1240 0
400 -97 103 1238 1240 0
400 97 -103 -1238 -1240 0
400 97 103 -1238 1240 0
400 -97 103 -1238 -1240 0
400 97 103 1238 -1240 0
400 -97 -103 -1238 1240 0
400 97 -103 1238 1240 0
400 -227 -262 825 -827 0
400 -227 262 825 827 0
400 227 -262 -825 -827 0
400 227 262 -825 827 0
400 -227 262 -825 -827 0
400 227 262 825 -827 0
400 -227 -262 -825 827 0
400 227 -262 825 827 0
400 -222 -223 1827 -1829 0
400 -222 223 1827 1829 0
400 222 -223 -1827 -1829 0
400 222 223 -1827 1829 0
400 -222 223 -1827 -1829 0
400 222 223 1827 -1829 0
400 -222 -223 -1827 1829 0
400 222 -223 1827 1829 0
400 -200 -218 621 -623 0
400 -200 218 621 623 0
400 200 -218 -621 -623 0
400 200 218 -621 623 0
400 -200 218 -621 -623 0
400 200 218 621 -623 0
400 -200 -218 -621 623 0
400 200 -218 621 623 0
400 -33 -34 1435 -1437 0
400 -33 34 1435 1437 0
400 33 -34 -1435 -1437 0
400 33 34 -1435 1437 0
400 -33 34 -1435 -1437 0
400 33 34 1435 -1437 0
400 -33 -34 -1435 1437 0
400 33 -34 1435 1437 0
400 81 -85 -89 -1251 0
400 81 -85 89 1251 0
400 -81 85 -89 -1251 0
400 -81 85 89 1251 0
400 -81 -85 89 -1251 0
400 81 85 89 -1251 0
400 -81 -85 -89 1251 0
400 81 85 -89 1251 0
400 1 -2 -3 -1442 0
400 1 -2 3 1442 0
400 -1 2 -3 -1442 0
400 -1 2 3 1442 0
400 -1 -2 3 -1442 0
400 1 2 3 -1442 0
400 -1 -2 -3 1442 0
400 1 2 -3 1442 0
400 -185 -187 1823 -1825 0
400 -185 187 1823 1825 0
400 185 -187 -1823 -1825 0
400 185 187 -1823 1825 0
400 -185 187 -1823 -1825 0
400 185 187 1823 -1825 0
400 -185 -187 -1823 1825 0
400 185 -187 1823 1825 0
400 -219 -250 629 -631 0
400 -219 250 629 631 0
400 219 -250 -629 -631 0
400 219 250 -629 631 0
400 -219 250 -629 -631 0
400 219 250 629 -631 0
400 -219 -250 -629 631 0
400 219 -250 629 631 0
400 -188 -205 823 -825 0
400 -188 205 823 825 0
400 188 -205 -823 -825 0
400 188 205 -823 825 0
400 -188 205 -823 -825 0
400 188 205 823 -825 0
400 -188 -205 -823 825 0
400 188 -205 823 825 0
400 -98 -107 1266 -1268 0
400 -98 107 1266 1268 0
400 98 -107 -1266 -1268 0
400 98 107 -1266 1268 0
400 -98 107 -1266 -1268 0
400 98 107 1266 -1268 0
400 -98 -107 -1266 1268 0
400 98 -107 1266 1268 0
400 140 -157 -179 -635 0
400 140 -157 179 635 0
400 -140 157 -179 -635 0
400 -140 157 179 635 0
400 -140 -157 179 -635 0
400 140 157 179 -635 0
400 -140 -157 -179 635 0
400 140 157 -179 635 0
400 83 -88 -90 -1272 0
400 83 -88 90 1272 0
400 -83 88 -90 -1272 0
400 -83 88 90 1272 0
400 -83 -88 90 -1272 0
400 83 88 90 -1272 0
400 -83 -88 -90 1272 0
400 83 88 -90 1272 0
400 -141 -143 1644 -1646 0
400 -141 143 1644 1646 0
400 141 -143 -1644 -1646 0
400 141 143 -1644 1646 0
400 -141 143 -1644 -1646 0
400 141 143 1644 -1646 0
400 -141 -143 -1644 1646 0
400 141 -143 1644 1646 0
400 148 -165 -187 -691 0
400 148 -165 187 691 0
400 -148 165 -187 -691 0
400 -148 165 187 691 0
400 -148 -165 187 -691 0
400 148 165 187 -691 0
400 -148 -165 -187 691 0
400 148 165 -187 691 0
400 -20 -104 895 -897 0
400 -20 104 895 897 0
400 20 -104 -895 -897 0
400 20 104 -895 897 0
400 -20 104 -895 -897 0
400 20 104 895 -897 0
400 -20 -104 -895 897 0
400 20 -104 895 897 0
400 141 -162 -184 -642 0
400 141 -162 184 642 0
400 -141 162 -184 -642 0
400 -141 162 184 642 0
400 -141 -162 184 -642 0
400 141 162 184 -642 0
400 -141 -162 -184 642 0
400 141 162 -184 642 0
400 -100 -105 1280 -1282 0
400 -100 105 1280 1282 0
400 100 -105 -1280 -1282 0
400 100 105 -1280 1282 0
400 -100 105 -1280 -1282 0
400 100 105 1280 -1282 0
400 -100 -105 -1280 1282 0
400 100 -105 1280 1282 0
400 -12 -13 907 -909 0
400 -12 13 907 909 0
400 12 -13 -907 -909 0
400 12 13 -907 909 0
400 -12 13 -907 -909 0
400 12 13 907 -909 0
400 -12 -13 -907 909 0
400 12 -13 907 909 0
400 -98 -111 1294 -1296 0
400 -98 111 1294 1296 0
400 98 -111 -1294 -1296 0
400 98 111 -1294 1296 0
400 -98 111 -1294 -1296 0
400 98 111 1294 -1296 0
400 -98 -111 -1294 1296 0
400 98 -111 1294 1296 0
400 -141 -146 1816 -1818 0
400 -141 146 1816 1818 0
400 141 -146 -1816 -1818 0
400 141 146 -1816 1818 0
400 -141 146 -1816 -1818 0
400 141 146 1816 -1818 0
400 -141 -146 -1816 1818 0
400 141 -146 1816 1818 0
400 9 -10 -30 -1430 0
400 9 -10 30 1430 0
400 -9 10 -30 -1430 0
400 -9 10 30 1430 0
400 -9 -10 30 -1430 0
400 9 10 30 -1430 0
400 -9 -10 -30 1430 0
400 9 10 -30 1430 0
400 -181 -204 648 -650 0
400 -181 204 648 650 0
400 181 -204 -648 -650 0
400 181 204 -648 650 0
400 -181 204 -648 -650 0
400 181 204 648 -650 0
400 -181 -204 -648 650 0
400 181 -204 648 650 0
400 -42 -43 1565 -1567 0
400 -42 43 1565 1567 0
400 42 -43 -1565 -1567 0
400 42 43 -1565 1567 0
400 -42 43 -1565 -1567 0
400 42 43 1565 -1567 0
400 -42 -43 -1565 1567 0
400 42 -43 1565 1567 0
400 -89 -94 1306 -1308 0
400 -89 94 1306 1308 0
400 89 -94 -1306 -1308 0
400 89 94 -1306 1308 0
400 -89 94 -1306 -1308 0
400 89 94 1306 -1308 0
400 -89 -94 -1306 1308 0
400 89 -94 1306 1308 0
400 -226 -261 818 -820 0
400 -226 261 818 820 0
400 226 -261 -818 -820 0
400 226 261 -818 820 0
400 -226 261 -818 -820 0
400 226 261 818 -820 0
400 -226 -261 -818 820 0
400 226 -261 818 820 0
400 -100 -109 1308 -1310 0
400 -100 109 1308 1310 0
400 100 -109 -1308 -1310 0
400 100 109 -1308 1310 0
400 -100 109 -1308 -1310 0
400 100 109 1308 -1310 0
400 -100 -109 -1308 1310 0
400 100 -109 1308 1310 0
400 -142 -143 1629 -1631 0
400 -142 143 1629 1631 0
400 142 -143 -1629 -1631 0
400 142 143 -1629 1631 0
400 -142 143 -1629 -1631 0
400 142 143 1629 -1631 0
400 -142 -143 -1629 1631 0
400 142 -143 1629 1631 0
400 137 -138 -139 -1816 0
400 137 -138 139 1816 0
400 -137 138 -139 -1816 0
400 -137 138 139 1816 0
400 -137 -138 139 -1816 0
400 137 138 139 -1816 0
400 -137 -138 -139 1816 0
400 137 138 -139 1816 0
400 -201 -223 656 -658 0
400 -201 223 656 658 0
400 201 -223 -656 -658 0
400 201 223 -656 658 0
400 -201 223 -656 -658 0
400 201 223 656 -658 0
400 -201 -223 -656 658 0
400 201 -223 656 658 0
400 -3 -4 1313 -1315 0
400 -3 4 1313 1315 0
400 3 -4 -1313 -1315 0
400 3 4 -1313 1315 0
400 -3 4 -1313 -1315 0
400 3 4 1313 -1315 0
400 -3 -4 -1313 1315 0
400 3 -4 1313 1315 0
400 -22 -23 1316 -1318 0
400 -22 23 1316 1318 0
400 22 -23 -1316 -1318 0
400 22 23 -1316 1318 0
400 -22 23 -1316 -1318 0
400 22 23 1316 -1318 0
400 -22 -23 -1316 1318 0
400 22 -23 1316 1318 0
400 -231 -249 713 -715 0
400 -231 249 713 715 0
400 231 -249 -713 -715 0
400 231 249 -713 715 0
400 -231 249 -713 -715 0
400 231 249 713 -715 0
400 -231 -249 -713 715 0
400 231 -249 713 715 0
400 -8 -25 1322 -1324 0
400 -8 25 1322 1324 0
400 8 -25 -1322 -1324 0
400 8 25 -1322 1324 0
400 -8 25 -1322 -1324 0
400 8 25 1322 -1324 0
400 -8 -25 -1322 1324 0
400 8 -25 1322 1324 0
400 -226 -227 1809 -1811 0
400 -226 227 1809 1811 0
400 226 -227 -1809 -1811 0
400 226 227 -1809 1811 0
400 -226 227 -1809 -1811 0
400 226 227 1809 -1811 0
400 -226 -227 -1809 1811 0
400 226 -227 1809 1811 0
400 -225 -264 811 -813 0
400 -225 264 811 813 0
400 225 -264 -811 -813 0
400 225 264 -811 813 0
400 -225 264 -811 -813 0
400 225 264 811 -813 0
400 -225 -264 -811 813 0
400 225 -264 811 813 0
400 -26 -27 1324 -1326 0
400 -26 27 1324 1326 0
400 26 -27 -1324 -1326 0
400 26 27 -1324 1326 0
400 -26 27 -1324 -1326 0
400 26 27 1324 -1326 0
400 -26 -27 -1324 1326 0
400 26 -27 1324 1326 0
400 146 -168 -187 -817 0
400 146 -168 187 817 0
400 -146 168 -187 -817 0
400 -146 168 187 817 0
400 -146 -168 187 -817 0
400 146 168 187 -817 0
400 -146 -168 -187 817 0
400 146 168 -187 817 0
400 -30 -50 1424 -1426 0
400 -30 50 1424 1426 0
400 30 -50 -1424 -1426 0
400 30 50 -1424 1426 0
400 -30 50 -1424 -1426 0
400 30 50 1424 -1426 0
400 -30 -50 -1424 1426 0
400 30 -50 1424 1426 0
400 -12 -29 1330 -1332 0
400 -12 29 1330 1332 0
400 12 -29 -1330 -1332 0
400 12 29 -1330 1332 0
400 -12 29 -1330 -1332 0
400 12 29 1330 -1332 0
400 -12 -29 -1330 1332 0
400 12 -29 1330 1332 0
400 -146 -147 1624 -1626 0
400 -146 147 1624 1626 0
400 146 -147 -1624 -1626 0
400 146 147 -1624 1626 0
400 -146 147 -1624 -1626 0
400 146 147 1624 -1626 0
400 -146 -147 -1624 1626 0
400 146 -147 1624 1626 0
400 -190 -209 711 -713 0
400 -190 209 711 713 0
400 190 -209 -711 -713 0
400 190 209 -711 713 0
400 -190 209 -711 -713 0
400 190 209 711 -713 0
400 -190 -209 -711 713 0
400 190 -209 711 713 0
400 -15 -16 1337 -1339 0
400 -15 16 1337 1339 0
400 15 -16 -1337 -1339 0
400 15 16 -1337 1339 0
400 -15 16 -1337 -1339 0
400 15 16 1337 -1339 0
400 -15 -16 -1337 1339 0
400 15 -16 1337 1339 0
400 -34 -35 1340 -1342 0
400 -34 35 1340 1342 0
400 34 -35 -1340 -1342 0
400 34 35 -1340 1342 0
400 -34 35 -1340 -1342 0
400 34 35 1340 -1342 0
400 -34 -35 -1340 1342 0
400 34 -35 1340 1342 0
400 145 -167 -186 -810 0
400 145 -167 186 810 0
400 -145 167 -186 -810 0
400 -145 167 186 810 0
400 -145 -167 186 -810 0
400 145 167 186 -810 0
400 -145 -167 -186 810 0
400 145 167 -186 810 0
400 -183 -186 1800 -1802 0
400 -183 186 1800 1802 0
400 183 -186 -1800 -1802 0
400 183 186 -1800 1802 0
400 -183 186 -1800 -1802 0
400 183 186 1800 -1802 0
400 -183 -186 -1800 1802 0
400 183 -186 1800 1802 0
400 1 -2 -3 -1346 0
400 1 -2 3 1346 0
400 -1 2 -3 -1346 0
400 -1 2 3 1346 0
400 -1 -2 3 -1346 0
400 1 2 3 -1346 0
400 -1 -2 -3 1346 0
400 1 2 -3 1346 0
400 -17 -101 902 -904 0
400 -17 101 902 904 0
400 17 -101 -902 -904 0
400 17 101 -902 904 0
400 -17 101 -902 -904 0
400 17 101 902 -904 0
400 -17 -101 -902 904 0
400 17 -101 902 904 0
400 -225 -252 671 -673 0
400 -225 252 671 673 0
400 225 -252 -671 -673 0
400 225 252 -671 673 0
400 -225 252 -671 -673 0
400 225 252 671 -673 0
400 -225 -252 -671 673 0
400 225 -252 671 673 0
400 -4 -41 1346 -1348 0
400 -4 41 1346 1348 0
400 4 -41 -1346 -1348 0
400 4 41 -1346 1348 0
400 -4 41 -1346 -1348 0
400 4 41 1346 -1348 0
400 -4 -41 -1346 1348 0
400 4 -41 1346 1348 0
400 -30 -33 1019 -1021 0
400 -30 33 1019 1021 0
400 30 -33 -1019 -1021 0
400 30 33 -1019 1021 0
400 -30 33 -1019 -1021 0
400 30 33 1019 -1021 0
400 -30 -33 -1019 1021 0
400 30 -33 1019 1021 0
400 -221 -237 510 -512 0
400 -221 237 510 512 0
400 221 -237 -510 -512 0
400 221 237 -510 512 0
400 -221 237 -510 -512 0
400 221 237 510 -512 0
400 -221 -237 -510 512 0
400 221 -237 510 512 0
400 -42 -43 1348 -1350 0
400 -42 43 1348 1350 0
400 42 -43 -1348 -1350 0
400 42 43 -1348 1350 0
400 -42 43 -1348 -1350 0
400 42 43 1348 -1350 0
400 -42 -43 -1348 1350 0
400 42 -43 1348 1350 0
400 -224 -263 804 -806 0
400 -224 263 804 806 0
400 224 -263 -804 -806 0
400 224 263 -804 806 0
400 -224 263 -804 -806 0
400 224 263 804 -806 0
400 -224 -263 -804 806 0
400 224 -263 804 806 0
400 -218 -219 1804 -1806 0
400 -218 219 1804 1806 0
400 218 -219 -1804 -1806 0
400 218 219 -1804 1806 0
400 -218 219 -1804 -1806 0
400 218 219 1804 -1806 0
400 -218 -219 -1804 1806 0
400 218 -219 1804 1806 0
400 -8 -45 1354 -1356 0
400 -8 45 1354 1356 0
400 8 -45 -1354 -1356 0
400 8 45 -1354 1356 0
400 -8 45 -1354 -1356 0
400 8 45 1354 -1356 0
400 -8 -45 -1354 1356 0
400 8 -45 1354 1356 0
400 -29 -36 1012 -1014 0
400 -29 36 1012 1014 0
400 29 -36 -1012 -1014 0
400 29 36 -1012 1014 0
400 -29 36 -1012 -1014 0
400 29 36 1012 -1014 0
400 -29 -36 -1012 1014 0
400 29 -36 1012 1014 0
400 -208 -226 677 -679 0
400 -208 226 677 679 0
400 208 -226 -677 -679 0
400 208 226 -677 679 0
400 -208 226 -677 -679 0
400 208 226 677 -679 0
400 -208 -226 -677 679 0
400 208 -226 677 679 0
400 -26 -45 1416 -1418 0
400 -26 45 1416 1418 0
400 26 -45 -1416 -1418 0
400 26 45 -1416 1418 0
400 -26 45 -1416 -1418 0
400 26 45 1416 -1418 0
400 -26 -45 -1416 1418 0
400 26 -45 1416 1418 0
400 -12 -49 1362 -1364 0
400 -12 49 1362 1364 0
400 12 -49 -1362 -1364 0
400 12 49 -1362 1364 0
400 -12 49 -1362 -1364 0
400 12 49 1362 -1364 0
400 -12 -49 -1362 1364 0
400 12 -49 1362 1364 0
400 -143 -147 1616 -1618 0
400 -143 147 1616 1618 0
400 143 -147 -1616 -1618 0
400 143 147 -1616 1618 0
400 -143 147 -1616 -1618 0
400 143 147 1616 -1618 0
400 -143 -147 -1616 1618 0
400 143 -147 1616 1618 0
400 138 -139 -141 -1622 0
400 138 -139 141 1622 0
400 -138 139 -141 -1622 0
400 -138 139 141 1622 0
400 -138 -139 141 -1622 0
400 138 139 141 -1622 0
400 -138 -139 -141 1622 0
400 138 139 -141 1622 0
400 21 -26 -32 -1006 0
400 21 -26 32 1006 0
400 -21 26 -32 -1006 0
400 -21 26 32 1006 0
400 -21 -26 32 -1006 0
400 21 26 32 -1006 0
400 -21 -26 -32 1006 0
400 21 26 -32 1006 0
400 -203 -224 502 -504 0
400 -203 224 502 504 0
400 203 -224 -502 -504 0
400 203 224 -502 504 0
400 -203 224 -502 -504 0
400 203 224 502 -504 0
400 -203 -224 -502 504 0
400 203 -224 502 504 0
400 147 -168 -186 -684 0
400 147 -168 186 684 0
400 -147 168 -186 -684 0
400 -147 168 186 684 0
400 -147 -168 186 -684 0
400 147 168 186 -684 0
400 -147 -168 -186 684 0
400 147 168 -186 684 0
400 -16 -53 1370 -1372 0
400 -16 53 1370 1372 0
400 16 -53 -1370 -1372 0
400 16 53 -1370 1372 0
400 -16 53 -1370 -1372 0
400 16 53 1370 -1372 0
400 -16 -53 -1370 1372 0
400 16 -53 1370 1372 0
400 -34 -39 999 -1001 0
400 -34 39 999 1001 0
400 34 -39 -999 -1001 0
400 34 39 -999 1001 0
400 -34 39 -999 -1001 0
400 34 39 999 -1001 0
400 -34 -39 -999 1001 0
400 34 -39 999 1001 0
400 -205 -227 684 -686 0
400 -205 227 684 686 0
400 205 -227 -684 -686 0
400 205 227 -684 686 0
400 -205 227 -684 -686 0
400 205 227 684 -686 0
400 -205 -227 -684 686 0
400 205 -227 684 686 0
400 -54 -55 1372 -1374 0
400 -54 55 1372 1374 0
400 54 -55 -1372 -1374 0
400 54 55 -1372 1374 0
400 -54 55 -1372 -1374 0
400 54 55 1372 -1374 0
400 -54 -55 -1372 1374 0
400 54 -55 1372 1374 0
400 21 -25 -29 -999 0
400 21 -25 29 999 0
400 -21 25 -29 -999 0
400 -21 25 29 999 0
400 -21 -25 29 -999 0
400 21 25 29 -999 0
400 -21 -25 -29 999 0
400 21 25 -29 999 0
400 1 -4 -21 -1378 0
400 1 -4 21 1378 0
400 -1 4 -21 -1378 0
400 -1 4 21 1378 0
400 -1 -4 21 -1378 0
400 1 4 21 -1378 0
400 -1 -4 -21 1378 0
400 1 4 -21 1378 0
400 1 -2 -22 -1384 0
400 1 -2 22 1384 0
400 -1 2 -22 -1384 0
400 -1 2 22 1384 0
400 -1 -2 22 -1384 0
400 1 2 22 -1384 0
400 -1 -2 -22 1384 0
400 1 2 -22 1384 0
400 -33 -38 992 -994 0
400 -33 38 992 994 0
400 33 -38 -992 -994 0
400 33 38 -992 994 0
400 -33 38 -992 -994 0
400 33 38 992 -994 0
400 -33 -38 -992 994 0
400 33 -38 992 994 0
400 -202 -203 1768 -1770 0
400 -202 203 1768 1770 0
400 202 -203 -1768 -1770 0
400 202 203 -1768 1770 0
400 -202 203 -1768 -1770 0
400 202 203 1768 -1770 0
400 -202 -203 -1768 1770 0
400 202 -203 1768 1770 0
400 -22 -42 1378 -1380 0
400 -22 42 1378 1380 0
400 22 -42 -1378 -1380 0
400 22 42 -1378 1380 0
400 -22 42 -1378 -1380 0
400 22 42 1378 -1380 0
400 -22 -42 -1378 1380 0
400 22 -42 1378 1380 0
400 -228 -251 692 -694 0
400 -228 251 692 694 0
400 228 -251 -692 -694 0
400 228 251 -692 694 0
400 -228 251 -692 -694 0
400 228 251 692 -694 0
400 -228 -251 -692 694 0
400 228 -251 692 694 0
400 137 -157 -177 -495 0
400 137 -157 177 495 0
400 -137 157 -177 -495 0
400 -137 157 177 495 0
400 -137 -157 177 -495 0
400 137 157 177 -495 0
400 -137 -157 -177 495 0
400 137 157 -177 495 0
400 3 -7 -11 -901 0
400 3 -7 11 901 0
400 -3 7 -11 -901 0
400 -3 7 11 901 0
400 -3 -7 11 -901 0
400 3 7 11 -901 0
400 -3 -7 -11 901 0
400 3 7 -11 901 0
400 2 -3 -21 -1390 0
400 2 -3 21 1390 0
400 -2 3 -21 -1390 0
400 -2 3 21 1390 0
400 -2 -3 21 -1390 0
400 2 3 21 -1390 0
400 -2 -3 -21 1390 0
400 2 3 -21 1390 0
400 -36 -37 985 -987 0
400 -36 37 985 987 0
400 36 -37 -985 -987 0
400 36 37 -985 987 0
400 -36 37 -985 -987 0
400 36 37 985 -987 0
400 -36 -37 -985 987 0
400 36 -37 985 987 0
400 5 -6 -26 -1410 0
400 5 -6 26 1410 0
400 -5 6 -26 -1410 0
400 -5 6 26 1410 0
400 -5 -6 26 -1410 0
400 5 6 26 -1410 0
400 -5 -6 -26 1410 0
400 5 6 -26 1410 0
400 137 -140 -141 -1610 0
400 137 -140 141 1610 0
400 -137 140 -141 -1610 0
400 -137 140 141 1610 0
400 -137 -140 141 -1610 0
400 137 140 141 -1610 0
400 -137 -140 -141 1610 0
400 137 140 -141 1610 0
400 24 -28 -32 -992 0
400 24 -28 32 992 0
400 -24 28 -32 -992 0
400 -24 28 32 992 0
400 -24 -28 32 -992 0
400 24 28 32 -992 0
400 -24 -28 -32 992 0
400 24 28 -32 992 0
400 137 -138 -142 -1616 0
400 137 -138 142 1616 0
400 -137 138 -142 -1616 0
400 -137 138 142 1616 0
400 -137 -138 142 -1616 0
400 137 138 142 -1616 0
400 -137 -138 -142 1616 0
400 137 138 -142 1616 0
400 -145 -178 1796 -1798 0
400 -145 178 1796 1798 0
400 145 -178 -1796 -1798 0
400 145 178 -1796 1798 0
400 -145 178 -1796 -1798 0
400 145 178 1796 -1798 0
400 -145 -178 -1796 1798 0
400 145 -178 1796 1798 0
400 -30 -35 977 -979 0
400 -30 35 977 979 0
400 30 -35 -977 -979 0
400 30 35 -977 979 0
400 -30 35 -977 -979 0
400 30 35 977 -979 0
400 -30 -35 -977 979 0
400 30 -35 977 979 0
400 -197 -218 488 -490 0
400 -197 218 488 490 0
400 197 -218 -488 -490 0
400 197 218 -488 490 0
400 -197 218 -488 -490 0
400 197 218 488 -490 0
400 -197 -218 -488 490 0
400 197 -218 488 490 0
400 -42 -43 1392 -1394 0
400 -42 43 1392 1394 0
400 42 -43 -1392 -1394 0
400 42 43 -1392 1394 0
400 -42 43 -1392 -1394 0
400 42 43 1392 -1394 0
400 -42 -43 -1392 1394 0
400 42 -43 1392 1394 0
400 -23 -41 1398 -1400 0
400 -23 41 1398 1400 0
400 23 -41 -1398 -1400 0
400 23 41 -1398 1400 0
400 -23 41 -1398 -1400 0
400 23 41 1398 -1400 0
400 -23 -41 -1398 1400 0
400 23 -41 1398 1400 0
400 -192 -211 697 -699 0
400 -192 211 697 699 0
400 192 -211 -697 -699 0
400 192 211 -697 699 0
400 -192 211 -697 -699 0
400 192 211 697 -699 0
400 -192 -211 -697 699 0
400 192 -211 697 699 0
400 -229 -251 699 -701 0
400 -229 251 699 701 0
400 229 -251 -699 -701 0
400 229 251 -699 701 0
400 -229 251 -699 -701 0
400 229 251 699 -701 0
400 -229 -251 -699 701 0
400 229 -251 699 701 0
400 5 -8 -25 -1404 0
400 5 -8 25 1404 0
400 -5 8 -25 -1404 0
400 -5 8 25 1404 0
400 -5 -8 25 -1404 0
400 5 8 25 -1404 0
400 -5 -8 -25 1404 0
400 5 8 -25 1404 0
400 -26 -46 1404 -1406 0
400 -26 46 1404 1406 0
400 26 -46 -1404 -1406 0
400 26 46 -1404 1406 0
400 -26 46 -1404 -1406 0
400 26 46 1404 -1406 0
400 -26 -46 -1404 1406 0
400 26 -46 1404 1406 0
400 -230 -252 706 -708 0
400 -230 252 706 708 0
400 230 -252 -706 -708 0
400 230 252 -706 708 0
400 -230 252 -706 -708 0
400 230 252 706 -708 0
400 -230 -252 -706 708 0
400 230 -252 706 708 0
400 -145 -146 1603 -1605 0
400 -145 146 1603 1605 0
400 145 -146 -1603 -1605 0
400 145 146 -1603 1605 0
400 -145 146 -1603 -1605 0
400 145 146 1603 -1605 0
400 -145 -146 -1603 1605 0
400 145 -146 1603 1605 0
400 -13 -19 964 -966 0
400 -13 19 964 966 0
400 13 -19 -964 -966 0
400 13 19 -964 966 0
400 -13 19 -964 -966 0
400 13 19 964 -966 0
400 -13 -19 -964 966 0
400 13 -19 964 966 0
400 -200 -217 481 -483 0
400 -200 217 481 483 0
400 200 -217 -481 -483 0
400 200 217 -481 483 0
400 -200 217 -481 -483 0
400 200 217 481 -483 0
400 -200 -217 -481 483 0
400 200 -217 481 483 0
400 6 -7 -25 -1416 0
400 6 -7 25 1416 0
400 -6 7 -25 -1416 0
400 -6 7 25 1416 0
400 -6 -7 25 -1416 0
400 6 7 25 -1416 0
400 -6 -7 -25 1416 0
400 6 7 -25 1416 0
400 -189 -212 704 -706 0
400 -189 212 704 706 0
400 189 -212 -704 -706 0
400 189 212 -704 706 0
400 -189 212 -704 -706 0
400 189 212 704 -706 0
400 -189 -212 -704 706 0
400 189 -212 704 706 0
400 -27 -47 1410 -1412 0
400 -27 47 1410 1412 0
400 27 -47 -1410 -1412 0
400 27 47 -1410 1412 0
400 -27 47 -1410 -1412 0
400 27 47 1410 -1412 0
400 -27 -47 -1410 1412 0
400 27 -47 1410 1412 0
400 -10 -15 893 -895 0
400 -10 15 893 895 0
400 10 -15 -893 -895 0
400 10 15 -893 895 0
400 -10 15 -893 -895 0
400 10 15 893 -895 0
400 -10 -15 -893 895 0
400 10 -15 893 895 0
400 197 -200 -201 -1782 0
400 197 -200 201 1782 0
400 -197 200 -201 -1782 0
400 -197 200 201 1782 0
400 -197 -200 201 -1782 0
400 197 200 201 -1782 0
400 -197 -200 -201 1782 0
400 197 200 -201 1782 0
400 9 -12 -29 -1424 0
400 9 -12 29 1424 0
400 -9 12 -29 -1424 0
400 -9 12 29 1424 0
400 -9 -12 29 -1424 0
400 9 12 29 -1424 0
400 -9 -12 -29 1424 0
400 9 12 -29 1424 0
400 -46 -47 1418 -1420 0
400 -46 47 1418 1420 0
400 46 -47 -1418 -1420 0
400 46 47 -1418 1420 0
400 -46 47 -1418 -1420 0
400 46 47 1418 -1420 0
400 -46 -47 -1418 1420 0
400 46 -47 1418 1420 0
400 137 -138 -139 -1602 0
400 137 -138 139 1602 0
400 -137 138 -139 -1602 0
400 -137 138 139 1602 0
400 -137 -138 139 -1602 0
400 137 138 139 -1602 0
400 -137 -138 -139 1602 0
400 137 138 -139 1602 0
400 2 -8 -11 -957 0
400 2 -8 11 957 0
400 -2 8 -11 -957 0
400 -2 8 11 957 0
400 -2 -8 11 -957 0
400 2 8 11 -957 0
400 -2 -8 -11 957 0
400 2 8 -11 957 0
400 144 -162 -181 -803 0
400 144 -162 181 803 0
400 -144 162 -181 -803 0
400 -144 162 181 803 0
400 -144 -162 181 -803 0
400 144 162 181 -803 0
400 -144 -162 -181 803 0
400 144 162 -181 803 0
400 -220 -240 475 -477 0
400 -220 240 475 477 0
400 220 -240 -475 -477 0
400 220 240 -475 477 0
400 -220 240 -475 -477 0
400 220 240 475 -477 0
400 -220 -240 -475 477 0
400 220 -240 475 477 0
400 -31 -51 1430 -1432 0
400 -31 51 1430 1432 0
400 31 -51 -1430 -1432 0
400 31 51 -1430 1432 0
400 -31 51 -1430 -1432 0
400 31 51 1430 -1432 0
400 -31 -51 -1430 1432 0
400 31 -51 1430 1432 0
400 1 -7 -10 -950 0
400 1 -7 10 950 0
400 -1 7 -10 -950 0
400 -1 7 10 950 0
400 -1 -7 10 -950 0
400 1 7 10 -950 0
400 -1 -7 -10 950 0
400 1 7 -10 950 0
400 -232 -250 720 -722 0
400 -232 250 720 722 0
400 232 -250 -720 -722 0
400 232 250 -720 722 0
400 -232 250 -720 -722 0
400 232 250 720 -722 0
400 -232 -250 -720 722 0
400 232 -250 720 722 0
400 -223 -262 797 -799 0
400 -223 262 797 799 0
400 223 -262 -797 -799 0
400 223 262 -797 799 0
400 -223 262 -797 -799 0
400 223 262 797 -799 0
400 -223 -262 -797 799 0
400 223 -262 797 799 0
400 -21 -23 1442 -1444 0
400 -21 23 1442 1444 0
400 21 -23 -1442 -1444 0
400 21 23 -1442 1444 0
400 -21 23 -1442 -1444 0
400 21 23 1442 -1444 0
400 -21 -23 -1442 1444 0
400 21 -23 1442 1444 0
400 -20 -107 944 -946 0
400 -20 107 944 946 0
400 20 -107 -944 -946 0
400 20 107 -944 946 0
400 -20 107 -944 -946 0
400 20 107 944 -946 0
400 -20 -107 -944 946 0
400 20 -107 944 946 0
400 -141 -142 1595 -1597 0
400 -141 142 1595 1597 0
400 141 -142 -1595 -1597 0
400 141 142 -1595 1597 0
400 -141 142 -1595 -1597 0
400 141 142 1595 -1597 0
400 -141 -142 -1595 1597 0
400 141 -142 1595 1597 0
400 -11 -14 942 -944 0
400 -11 14 942 944 0
400 11 -14 -942 -944 0
400 11 14 -942 944 0
400 -11 14 -942 -944 0
400 11 14 942 -944 0
400 -11 -14 -942 944 0
400 11 -14 942 944 0
400 1 -2 -22 -1398 0
400 1 -2 22 1398 0
400 -1 2 -22 -1398 0
400 -1 2 22 1398 0
400 -1 -2 22 -1398 0
400 1 2 22 -1398 0
400 -1 -2 -22 1398 0
400 1 2 -22 1398 0
400 -42 -43 1458 -1460 0
400 -42 43 1458 1460 0
400 42 -43 -1458 -1460 0
400 42 43 -1458 1460 0
400 -42 43 -1458 -1460 0
400 42 43 1458 -1460 0
400 -42 -43 -1458 1460 0
400 42 -43 1458 1460 0
400 137 -138 -139 -1594 0
400 137 -138 139 1594 0
400 -137 138 -139 -1594 0
400 -137 138 139 1594 0
400 -137 -138 139 -1594 0
400 137 138 139 -1594 0
400 -137 -138 -139 1594 0
400 137 138 -139 1594 0
400 -58 -113 1588 -1590 0
400 -58 113 1588 1590 0
400 58 -113 -1588 -1590 0
400 58 113 -1588 1590 0
400 -58 113 -1588 -1590 0
400 58 113 1588 -1590 0
400 -58 -113 -1588 1590 0
400 58 -113 1588 1590 0
400 -5 -19 1576 -1578 0
400 -5 19 1576 1578 0
400 5 -19 -1576 -1578 0
400 5 19 -1576 1578 0
400 -5 19 -1576 -1578 0
400 5 19 1576 -1578 0
400 -5 -19 -1576 1578 0
400 5 -19 1576 1578 0
400 -25 -27 1478 -1480 0
400 -25 27 1478 1480 0
400 25 -27 -1478 -1480 0
400 25 27 -1478 1480 0
400 -25 27 -1478 -1480 0
400 25 27 1478 -1480 0
400 -25 -27 -1478 1480 0
400 25 -27 1478 1480 0
400 -42 -43 1583 -1585 0
400 -42 43 1583 1585 0
400 42 -43 -1583 -1585 0
400 42 43 -1583 1585 0
400 -42 43 -1583 -1585 0
400 42 43 1583 -1585 0
400 -42 -43 -1583 1585 0
400 42 -43 1583 1585 0
400 -214 -236 887 -889 0
400 -214 236 887 889 0
400 214 -236 -887 -889 0
400 214 236 -887 889 0
400 -214 236 -887 -889 0
400 214 236 887 -889 0
400 -214 -236 -887 889 0
400 214 -236 887 889 0
400 -46 -47 1486 -1488 0
400 -46 47 1486 1488 0
400 46 -47 -1486 -1488 0
400 46 47 -1486 1488 0
400 -46 47 -1486 -1488 0
400 46 47 1486 -1488 0
400 -46 -47 -1486 1488 0
400 46 -47 1486 1488 0
400 -22 -41 1390 -1392 0
400 -22 41 1390 1392 0
400 22 -41 -1390 -1392 0
400 22 41 -1390 1392 0
400 -22 41 -1390 -1392 0
400 22 41 1390 -1392 0
400 -22 -41 -1390 1392 0
400 22 -41 1390 1392 0
400 -204 -222 789 -791 0
400 -204 222 789 791 0
400 204 -222 -789 -791 0
400 204 222 -789 791 0
400 -204 222 -789 -791 0
400 204 222 789 -791 0
400 -204 -222 -789 791 0
400 204 -222 789 791 0
400 9 -10 -11 -1492 0
400 9 -10 11 1492 0
400 -9 10 -11 -1492 0
400 -9 10 11 1492 0
400 -9 -10 11 -1492 0
400 9 10 11 -1492 0
400 -9 -10 -11 1492 0
400 9 10 -11 1492 0
400 -54 -55 1510 -1512 0
400 -54 55 1510 1512 0
400 54 -55 -1510 -1512 0
400 54 55 -1510 1512 0
400 -54 55 -1510 -1512 0
400 54 55 1510 -1512 0
400 -54 -55 -1510 1512 0
400 54 -55 1510 1512 0
400 -38 -39 1581 -1583 0
400 -38 39 1581 1583 0
400 38 -39 -1581 -1583 0
400 38 39 -1581 1583 0
400 -38 39 -1581 -1583 0
400 38 39 1581 -1583 0
400 -38 -39 -1581 1583 0
400 38 -39 1581 1583 0
400 -50 -51 1494 -1496 0
400 -50 51 1494 1496 0
400 50 -51 -1494 -1496 0
400 50 51 -1494 1496 0
400 -50 51 -1494 -1496 0
400 50 51 1494 -1496 0
400 -50 -51 -1494 1496 0
400 50 -51 1494 1496 0
400 -26 -37 1579 -1581 0
400 -26 37 1579 1581 0
400 26 -37 -1579 -1581 0
400 26 37 -1579 1581 0
400 -26 37 -1579 -1581 0
400 26 37 1579 -1581 0
400 -26 -37 -1579 1581 0
400 26 -37 1579 1581 0
400 -29 -31 1500 -1502 0
400 -29 31 1500 1502 0
400 29 -31 -1500 -1502 0
400 29 31 -1500 1502 0
400 -29 31 -1500 -1502 0
400 29 31 1500 -1502 0
400 -29 -31 -1500 1502 0
400 29 -31 1500 1502 0
400 -23 -43 1384 -1386 0
400 -23 43 1384 1386 0
400 23 -43 -1384 -1386 0
400 23 43 -1384 1386 0
400 -23 43 -1384 -1386 0
400 23 43 1384 -1386 0
400 -23 -43 -1384 1386 0
400 23 -43 1384 1386 0
400 156 -174 -193 -887 0
400 156 -174 193 887 0
400 -156 174 -193 -887 0
400 -156 174 193 887 0
400 -156 -174 193 -887 0
400 156 174 193 -887 0
400 -156 -174 -193 887 0
400 156 174 -193 887 0
400 13 -14 -15 -1508 0
400 13 -14 15 1508 0
400 -13 14 -15 -1508 0
400 -13 14 15 1508 0
400 -13 -14 15 -1508 0
400 13 14 15 -1508 0
400 -13 -14 -15 1508 0
400 13 14 -15 1508 0
400 -33 -35 1508 -1510 0
400 -33 35 1508 1510 0
400 33 -35 -1508 -1510 0
400 33 35 -1508 1510 0
400 -33 35 -1508 -1510 0
400 33 35 1508 -1510 0
400 -33 -35 -1508 1510 0
400 33 -35 1508 1510 0
400 197 -198 -199 -1788 0
400 197 -198 199 1788 0
400 -197 198 -199 -1788 0
400 -197 198 199 1788 0
400 -197 -198 199 -1788 0
400 197 198 199 -1788 0
400 -197 -198 -199 1788 0
400 197 198 -199 1788 0
400 142 -164 -183 -789 0
400 142 -164 183 789 0
400 -142 164 -183 -789 0
400 -142 164 183 789 0
400 -142 -164 183 -789 0
400 142 164 183 -789 0
400 -142 -164 -183 789 0
400 142 164 -183 789 0
400 157 -158 -159 -1700 0
400 157 -158 159 1700 0
400 -157 158 -159 -1700 0
400 -157 158 159 1700 0
400 -157 -158 159 -1700 0
400 157 158 159 -1700 0
400 -157 -158 -159 1700 0
400 157 158 -159 1700 0
400 -201 -203 1788 -1790 0
400 -201 203 1788 1790 0
400 201 -203 -1788 -1790 0
400 201 203 -1788 1790 0
400 -201 203 -1788 -1790 0
400 201 203 1788 -1790 0
400 -201 -203 -1788 1790 0
400 201 -203 1788 1790 0
400 -31 -37 1522 -1524 0
400 -31 37 1522 1524 0
400 31 -37 -1522 -1524 0
400 31 37 -1522 1524 0
400 -31 37 -1522 -1524 0
400 31 37 1522 -1524 0
400 -31 -37 -1522 1524 0
400 31 -37 1522 1524 0
400 -22 -23 1519 -1521 0
400 -22 23 1519 1521 0
400 22 -23 -1519 -1521 0
400 22 23 -1519 1521 0
400 -22 23 -1519 -1521 0
400 22 23 1519 -1521 0
400 -22 -23 -1519 1521 0
400 22 -23 1519 1521 0
400 -50 -51 1526 -1528 0
400 -50 51 1526 1528 0
400 50 -51 -1526 -1528 0
400 50 51 -1526 1528 0
400 -50 51 -1526 -1528 0
400 50 51 1526 -1528 0
400 -50 -51 -1526 1528 0
400 50 -51 1526 1528 0
400 -59 -101 1530 -1532 0
400 -59 101 1530 1532 0
400 59 -101 -1530 -1532 0
400 59 101 -1530 1532 0
400 -59 101 -1530 -1532 0
400 59 101 1530 -1532 0
400 -59 -101 -1530 1532 0
400 59 -101 1530 1532 0
400 -51 -57 1568 -1570 0
400 -51 57 1568 1570 0
400 51 -57 -1568 -1570 0
400 51 57 -1568 1570 0
400 -51 57 -1568 -1570 0
400 51 57 1568 -1570 0
400 -51 -57 -1568 1570 0
400 51 -57 1568 1570 0
400 -58 -113 1570 -1572 0
400 -58 113 1570 1572 0
400 58 -113 -1570 -1572 0
400 58 113 -1570 1572 0
400 -58 113 -1570 -1572 0
400 58 113 1570 -1572 0
400 -58 -113 -1570 1572 0
400 58 -113 1570 1572 0
400 139 -157 -180 -768 0
400 139 -157 180 768 0
400 -139 157 -180 -768 0
400 -139 157 180 768 0
400 -139 -157 180 -768 0
400 139 157 180 -768 0
400 -139 -157 -180 768 0
400 139 157 -180 768 0
400 -30 -31 1332 -1334 0
400 -30 31 1332 1334 0
400 30 -31 -1332 -1334 0
400 30 31 -1332 1334 0
400 -30 31 -1332 -1334 0
400 30 31 1332 -1334 0
400 -30 -31 -1332 1334 0
400 30 -31 1332 1334 0
400 -59 -101 1550 -1552 0
400 -59 101 1550 1552 0
400 59 -101 -1550 -1552 0
400 59 101 -1550 1552 0
400 -59 101 -1550 -1552 0
400 59 101 1550 -1552 0
400 -59 -101 -1550 1552 0
400 59 -101 1550 1552 0
400 -17 -18 1537 -1539 0
400 -17 18 1537 1539 0
400 17 -18 -1537 -1539 0
400 17 18 -1537 1539 0
400 -17 18 -1537 -1539 0
400 17 18 1537 -1539 0
400 -17 -18 -1537 1539 0
400 17 -18 1537 1539 0
400 -197 -219 768 -770 0
400 -197 219 768 770 0
400 197 -219 -768 -770 0
400 197 219 -768 770 0
400 -197 219 -768 -770 0
400 197 219 768 -770 0
400 -197 -219 -768 770 0
400 197 -219 768 770 0
400 -23 -25 1541 -1543 0
400 -23 25 1541 1543 0
400 23 -25 -1541 -1543 0
400 23 25 -1541 1543 0
400 -23 25 -1541 -1543 0
400 23 25 1541 -1543 0
400 -23 -25 -1541 1543 0
400 23 -25 1541 1543 0
400 -37 -38 1544 -1546 0
400 -37 38 1544 1546 0
400 37 -38 -1544 -1546 0
400 37 38 -1544 1546 0
400 -37 38 -1544 -1546 0
400 37 38 1544 -1546 0
400 -37 -38 -1544 1546 0
400 37 -38 1544 1546 0
400 -57 -58 1548 -1550 0
400 -57 58 1548 1550 0
400 57 -58 -1548 -1550 0
400 57 58 -1548 1550 0
400 -57 58 -1548 -1550 0
400 57 58 1548 -1550 0
400 -57 -58 -1548 1550 0
400 57 -58 1548 1550 0
400 -220 -263 776 -778 0
400 -220 263 776 778 0
400 220 -263 -776 -778 0
400 220 263 -776 778 0
400 -220 263 -776 -778 0
400 220 263 776 -778 0
400 -220 -263 -776 778 0
400 220 -263 776 778 0
400 -210 -232 859 -861 0
400 -210 232 859 861 0
400 210 -232 -859 -861 0
400 210 232 -859 861 0
400 -210 232 -859 -861 0
400 210 232 859 -861 0
400 -210 -232 -859 861 0
400 210 -232 859 861 0
400 138 -160 -179 -761 0
400 138 -160 179 761 0
400 -138 160 -179 -761 0
400 -138 160 179 761 0
400 -138 -160 179 -761 0
400 138 160 179 -761 0
400 -138 -160 -179 761 0
400 138 160 -179 761 0
400 -19 -21 1558 -1560 0
400 -19 21 1558 1560 0
400 19 -21 -1558 -1560 0
400 19 21 -1558 1560 0
400 -19 21 -1558 -1560 0
400 19 21 1558 -1560 0
400 -19 -21 -1558 1560 0
400 19 -21 1558 1560 0
400 -38 -39 1563 -1565 0
400 -38 39 1563 1565 0
400 38 -39 -1563 -1565 0
400 38 39 -1563 1565 0
400 -38 39 -1563 -1565 0
400 38 39 1563 -1565 0
400 -38 -39 -1563 1565 0
400 38 -39 1563 1565 0
400 1 -2 -3 -1556 0
400 1 -2 3 1556 0
400 -1 2 -3 -1556 0
400 -1 2 3 1556 0
400 -1 -2 3 -1556 0
400 1 2 3 -1556 0
400 -1 -2 -3 1556 0
400 1 2 -3 1556 0
400 -31 -37 1561 -1563 0
400 -31 37 1561 1563 0
400 31 -37 -1561 -1563 0
400 31 37 -1561 1563 0
400 -31 37 -1561 -1563 0
400 31 37 1561 -1563 0
400 -31 -37 -1561 1563 0
400 31 -37 1561 1563 0
400 152 -170 -189 -859 0
400 152 -170 189 859 0
400 -152 170 -189 -859 0
400 -152 170 189 859 0
400 -152 -170 189 -859 0
400 152 170 189 -859 0
400 -152 -170 -189 859 0
400 152 170 -189 859 0
400 1 -2 -3 -1576 0
400 1 -2 3 1576 0
400 -1 2 -3 -1576 0
400 -1 2 3 1576 0
400 -1 -2 3 -1576 0
400 1 2 3 -1576 0
400 -1 -2 -3 1576 0
400 1 2 -3 1576 0
400 -205 -206 1775 -1777 0
400 -205 206 1775 1777 0
400 205 -206 -1775 -1777 0
400 205 206 -1775 1777 0
400 -205 206 -1775 -1777 0
400 205 206 1775 -1777 0
400 -205 -206 -1775 1777 0
400 205 -206 1775 1777 0
400 -196 -213 879 -881 0
400 -196 213 879 881 0
400 196 -213 -879 -881 0
400 196 213 -879 881 0
400 -196 213 -879 -881 0
400 196 213 879 -881 0
400 -196 -213 -879 881 0
400 196 -213 879 881 0
400 141 -163 -182 -782 0
400 141 -163 182 782 0
400 -141 163 -182 -782 0
400 -141 163 182 782 0
400 -141 -163 182 -782 0
400 141 163 182 -782 0
400 -141 -163 -182 782 0
400 141 163 -182 782 0
400 -46 -57 1586 -1588 0
400 -46 57 1586 1588 0
400 46 -57 -1586 -1588 0
400 46 57 -1586 1588 0
400 -46 57 -1586 -1588 0
400 46 57 1586 -1588 0
400 -46 -57 -1586 1588 0
400 46 -57 1586 1588 0
400 -9 -10 1556 -1558 0
400 -9 10 1556 1558 0
400 9 -10 -1556 -1558 0
400 9 10 -1556 1558 0
400 -9 10 -1556 -1558 0
400 9 10 1556 -1558 0
400 -9 -10 -1556 1558 0
400 9 -10 1556 1558 0
400 -200 -201 1766 -1768 0
400 -200 201 1766 1768 0
400 200 -201 -1766 -1768 0
400 200 201 -1766 1768 0
400 -200 201 -1766 -1768 0
400 200 201 1766 -1768 0
400 -200 -201 -1766 1768 0
400 200 -201 1766 1768 0
400 -185 -186 1760 -1762 0
400 -185 186 1760 1762 0
400 185 -186 -1760 -1762 0
400 185 186 -1760 1762 0
400 -185 186 -1760 -1762 0
400 185 186 1760 -1762 0
400 -185 -186 -1760 1762 0
400 185 -186 1760 1762 0
400 197 -198 -199 -1774 0
400 197 -198 199 1774 0
400 -197 198 -199 -1774 0
400 -197 198 199 1774 0
400 -197 -198 199 -1774 0
400 197 198 199 -1774 0
400 -197 -198 -199 1774 0
400 197 198 -199 1774 0
400 -180 -181 1757 -1759 0
400 -180 181 1757 1759 0
400 180 -181 -1757 -1759 0
400 180 181 -1757 1759 0
400 -180 181 -1757 -1759 0
400 180 181 1757 -1759 0
400 -180 -181 -1757 1759 0
400 180 -181 1757 1759 0
400 -142 -146 1610 -1612 0
400 -142 146 1610 1612 0
400 142 -146 -1610 -1612 0
400 142 146 -1610 1612 0
400 -142 146 -1610 -1612 0
400 142 146 1610 -1612 0
400 -142 -146 -1610 1612 0
400 142 -146 1610 1612 0
400 -195 -216 872 -874 0
400 -195 216 872 874 0
400 195 -216 -872 -874 0
400 195 216 -872 874 0
400 -195 216 -872 -874 0
400 195 216 872 -874 0
400 -195 -216 -872 874 0
400 195 -216 872 874 0
400 -142 -145 1622 -1624 0
400 -142 145 1622 1624 0
400 142 -145 -1622 -1624 0
400 142 145 -1622 1624 0
400 -142 145 -1622 -1624 0
400 142 145 1622 -1624 0
400 -142 -145 -1622 1624 0
400 142 -145 1622 1624 0
400 13 -14 -15 -1370 0
400 13 -14 15 1370 0
400 -13 14 -15 -1370 0
400 -13 14 15 1370 0
400 -13 -14 15 -1370 0
400 13 14 15 -1370 0
400 -13 -14 -15 1370 0
400 13 14 -15 1370 0
400 140 -158 -177 -775 0
400 140 -158 177 775 0
400 -140 158 -177 -775 0
400 -140 158 177 775 0
400 -140 -158 177 -775 0
400 140 158 177 -775 0
400 -140 -158 -177 775 0
400 140 158 -177 775 0
400 -41 -46 1546 -1548 0
400 -41 46 1546 1548 0
400 41 -46 -1546 -1548 0
400 41 46 -1546 1548 0
400 -41 46 -1546 -1548 0
400 41 46 1546 -1548 0
400 -41 -46 -1546 1548 0
400 41 -46 1546 1548 0
400 -50 -51 1364 -1366 0
400 -50 51 1364 1366 0
400 50 -51 -1364 -1366 0
400 50 51 -1364 1366 0
400 -50 51 -1364 -1366 0
400 50 51 1364 -1366 0
400 -50 -51 -1364 1366 0
400 50 -51 1364 1366 0
400 137 -138 -139 -1636 0
400 137 -138 139 1636 0
400 -137 138 -139 -1636 0
400 -137 138 139 1636 0
400 -137 -138 139 -1636 0
400 137 138 139 -1636 0
400 -137 -138 -139 1636 0
400 137 138 -139 1636 0
400 -57 -58 1528 -1530 0
400 -57 58 1528 1530 0
400 57 -58 -1528 -1530 0
400 57 58 -1528 1530 0
400 -57 58 -1528 -1530 0
400 57 58 1528 -1530 0
400 -57 -58 -1528 1530 0
400 57 -58 1528 1530 0
400 -145 -146 1646 -1648 0
400 -145 146 1646 1648 0
400 145 -146 -1646 -1648 0
400 145 146 -1646 1648 0
400 -145 146 -1646 -1648 0
400 145 146 1646 -1648 0
400 -145 -146 -1646 1648 0
400 145 -146 1646 1648 0
400 -7 -8 1535 -1537 0
400 -7 8 1535 1537 0
400 7 -8 -1535 -1537 0
400 7 8 -1535 1537 0
400 -7 8 -1535 -1537 0
400 7 8 1535 -1537 0
400 -7 -8 -1535 1537 0
400 7 -8 1535 1537 0
400 138 -139 -140 -1644 0
400 138 -139 140 1644 0
400 -138 139 -140 -1644 0
400 -138 139 140 1644 0
400 -138 -139 140 -1644 0
400 138 139 140 -1644 0
400 -138 -139 -140 1644 0
400 138 139 -140 1644 0
400 9 -10 -11 -1362 0
400 9 -10 11 1362 0
400 -9 10 -11 -1362 0
400 -9 10 11 1362 0
400 -9 -10 11 -1362 0
400 9 10 11 -1362 0
400 -9 -10 -11 1362 0
400 9 10 -11 1362 0
400 -183 -187 1744 -1746 0
400 -183 187 1744 1746 0
400 183 -187 -1744 -1746 0
400 183 187 -1744 1746 0
400 -183 187 -1744 -1746 0
400 183 187 1744 -1746 0
400 -183 -187 -1744 1746 0
400 183 -187 1744 1746 0
400 -180 -181 1722 -1724 0
400 -180 181 1722 1724 0
400 180 -181 -1722 -1724 0
400 180 181 -1722 1724 0
400 -180 181 -1722 -1724 0
400 180 181 1722 -1724 0
400 -180 -181 -1722 1724 0
400 180 -181 1722 1724 0
400 177 -178 -179 -1722 0
400 177 -178 179 1722 0
400 -177 178 -179 -1722 0
400 -177 178 179 1722 0
400 -177 -178 179 -1722 0
400 177 178 179 -1722 0
400 -177 -178 -179 1722 0
400 177 178 -179 1722 0
400 -19 -22 1539 -1541 0
400 -19 22 1539 1541 0
400 19 -22 -1539 -1541 0
400 19 22 -1539 1541 0
400 -19 22 -1539 -1541 0
400 19 22 1539 -1541 0
400 -19 -22 -1539 1541 0
400 19 -22 1539 1541 0
400 -183 -186 1751 -1753 0
400 -183 186 1751 1753 0
400 183 -186 -1751 -1753 0
400 183 186 -1751 1753 0
400 -183 186 -1751 -1753 0
400 183 186 1751 -1753 0
400 -183 -186 -1751 1753 0
400 183 -186 1751 1753 0
400 -146 -147 1652 -1654 0
400 -146 147 1652 1654 0
400 146 -147 -1652 -1654 0
400 146 147 -1652 1654 0
400 -146 147 -1652 -1654 0
400 146 147 1652 -1654 0
400 -146 -147 -1652 1654 0
400 146 -147 1652 1654 0
400 145 -166 -188 -670 0
400 145 -166 188 670 0
400 -145 166 -188 -670 0
400 -145 166 188 670 0
400 -145 -166 188 -670 0
400 145 166 188 -670 0
400 -145 -166 -188 670 0
400 145 166 -188 670 0
400 146 -167 -185 -677 0
400 146 -167 185 677 0
400 -146 167 -185 -677 0
400 -146 167 185 677 0
400 -146 -167 185 -677 0
400 146 167 185 -677 0
400 -146 -167 -185 677 0
400 146 167 -185 677 0
400 -46 -47 1356 -1358 0
400 -46 47 1356 1358 0
400 46 -47 -1356 -1358 0
400 46 47 -1356 1358 0
400 -46 47 -1356 -1358 0
400 46 47 1356 -1358 0
400 -46 -47 -1356 1358 0
400 46 -47 1356 1358 0
400 -161 -162 1665 -1667 0
400 -161 162 1665 1667 0
400 161 -162 -1665 -1667 0
400 161 162 -1665 1667 0
400 -161 162 -1665 -1667 0
400 161 162 1665 -1667 0
400 -161 -162 -1665 1667 0
400 161 -162 1665 1667 0
400 -161 -163 1708 -1710 0
400 -161 163 1708 1710 0
400 161 -163 -1708 -1710 0
400 161 163 -1708 1710 0
400 -161 163 -1708 -1710 0
400 161 163 1708 -1710 0
400 -161 -163 -1708 1710 0
400 161 -163 1708 1710 0
400 -162 -166 1680 -1682 0
400 -162 166 1680 1682 0
400 162 -166 -1680 -1682 0
400 162 166 -1680 1682 0
400 -162 166 -1680 -1682 0
400 162 166 1680 -1682 0
400 -162 -166 -1680 1682 0
400 162 -166 1680 1682 0
400 5 -6 -7 -1354 0
400 5 -6 7 1354 0
400 -5 6 -7 -1354 0
400 -5 6 7 1354 0
400 -5 -6 7 -1354 0
400 5 6 7 -1354 0
400 -5 -6 -7 1354 0
400 5 6 -7 1354 0
400 158 -159 -160 -1708 0
400 158 -159 160 1708 0
400 -158 159 -160 -1708 0
400 -158 159 160 1708 0
400 -158 -159 160 -1708 0
400 158 159 160 -1708 0
400 -158 -159 -160 1708 0
400 158 159 -160 1708 0
400 -163 -166 1701 -1703 0
400 -163 166 1701 1703 0
400 163 -166 -1701 -1703 0
400 163 166 -1701 1703 0
400 -163 166 -1701 -1703 0
400 163 166 1701 -1703 0
400 -163 -166 -1701 1703 0
400 163 -166 1701 1703 0
400 158 -161 -163 -1716 0
400 158 -161 163 1716 0
400 -158 161 -163 -1716 0
400 -158 161 163 1716 0
400 -158 -161 163 -1716 0
400 158 161 163 -1716 0
400 -158 -161 -163 1716 0
400 158 161 -163 1716 0
400 -166 -167 1716 -1718 0
400 -166 167 1716 1718 0
400 166 -167 -1716 -1718 0
400 166 167 -1716 1718 0
400 -166 167 -1716 -1718 0
400 166 167 1716 -1718 0
400 -166 -167 -1716 1718 0
400 166 -167 1716 1718 0
400 -194 -215 865 -867 0
400 -194 215 865 867 0
400 194 -215 -865 -867 0
400 194 215 -865 867 0
400 -194 215 -865 -867 0
400 194 215 865 -867 0
400 -194 -215 -865 867 0
400 194 -215 865 867 0
400 -200 -218 761 -763 0
400 -200 218 761 763 0
400 200 -218 -761 -763 0
400 200 218 -761 763 0
400 -200 218 -761 -763 0
400 200 218 761 -763 0
400 -200 -218 -761 763 0
400 200 -218 761 763 0
400 -182 -186 1738 -1740 0
400 -182 186 1738 1740 0
400 182 -186 -1738 -1740 0
400 182 186 -1738 1740 0
400 -182 186 -1738 -1740 0
400 182 186 1738 -1740 0
400 -182 -186 -1738 1740 0
400 182 -186 1738 1740 0
400 -233 -262 867 -869 0
400 -233 262 867 869 0
400 233 -262 -867 -869 0
400 233 262 -867 869 0
400 -233 262 -867 -869 0
400 233 262 867 -869 0
400 -233 -262 -867 869 0
400 233 -262 867 869 0
400 -38 -41 1524 -1526 0
400 -38 41 1524 1526 0
400 38 -41 -1524 -1526 0
400 38 41 -1524 1526 0
400 -38 41 -1524 -1526 0
400 38 41 1524 -1526 0
400 -38 -41 -1524 1526 0
400 38 -41 1524 1526 0
400 -217 -264 755 -757 0
400 -217 264 755 757 0
400 217 -264 -755 -757 0
400 217 264 -755 757 0
400 -217 264 -755 -757 0
400 217 264 755 -757 0
400 -217 -264 -755 757 0
400 217 -264 755 757 0
400 177 -180 -181 -1738 0
400 177 -180 181 1738 0
400 -177 180 -181 -1738 0
400 -177 180 181 1738 0
400 -177 -180 181 -1738 0
400 177 180 181 -1738 0
400 -177 -180 -181 1738 0
400 177 180 -181 1738 0
400 -180 -185 1730 -1732 0
400 -180 185 1730 1732 0
400 180 -185 -1730 -1732 0
400 180 185 -1730 1732 0
400 -180 185 -1730 -1732 0
400 180 185 1730 -1732 0
400 -180 -185 -1730 1732 0
400 180 -185 1730 1732 0
400 -179 -181 1749 -1751 0
400 -179 181 1749 1751 0
400 179 -181 -1749 -1751 0
400 179 181 -1749 1751 0
400 -179 181 -1749 -1751 0
400 179 181 1749 -1751 0
400 -179 -181 -1749 1751 0
400 179 -181 1749 1751 0
400 197 -198 -199 -1766 0
400 197 -198 199 1766 0
400 -197 198 -199 -1766 0
400 -197 198 199 1766 0
400 -197 -198 199 -1766 0
400 197 198 199 -1766 0
400 -197 -198 -199 1766 0
400 197 198 -199 1766 0
400 -202 -206 1782 -1784 0
400 -202 206 1782 1784 0
400 202 -206 -1782 -1784 0
400 202 206 -1782 1784 0
400 -202 206 -1782 -1784 0
400 202 206 1782 -1784 0
400 -202 -206 -1782 1784 0
400 202 -206 1782 1784 0
400 1 -10 -11 -1516 0
400 1 -10 11 1516 0
400 -1 10 -11 -1516 0
400 -1 10 11 1516 0
400 -1 -10 11 -1516 0
400 1 10 11 -1516 0
400 -1 -10 -11 1516 0
400 1 10 -11 1516 0
400 177 -178 -179 -1730 0
400 177 -178 179 1730 0
400 -177 178 -179 -1730 0
400 -177 178 179 1730 0
400 -177 -178 179 -1730 0
400 177 178 179 -1730 0
400 -177 -178 -179 1730 0
400 177 178 -179 1730 0
400 -17 -18 1516 -1518 0
400 -17 18 1516 1518 0
400 17 -18 -1516 -1518 0
400 17 18 -1516 1518 0
400 -17 18 -1516 -1518 0
400 17 18 1516 -1518 0
400 -17 -18 -1516 1518 0
400 17 -18 1516 1518 0
400 177 -178 -182 -1744 0
400 177 -178 182 1744 0
400 -177 178 -182 -1744 0
400 -177 178 182 1744 0
400 -177 -178 182 -1744 0
400 177 178 182 -1744 0
400 -177 -178 -182 1744 0
400 177 178 -182 1744 0
400 137 -142 -143 -1796 0
400 137 -142 143 1796 0
400 -137 142 -143 -1796 0
400 -137 142 143 1796 0
400 -137 -142 143 -1796 0
400 137 142 143 -1796 0
400 -137 -142 -143 1796 0
400 137 142 -143 1796 0
400 -179 -181 1798 -1800 0
400 -179 181 1798 1800 0
400 179 -181 -1798 -1800 0
400 179 181 -1798 1800 0
400 -179 181 -1798 -1800 0
400 179 181 1798 -1800 0
400 -179 -181 -1798 1800 0
400 179 -181 1798 1800 0
400 -222 -225 1807 -1809 0
400 -222 225 1807 1809 0
400 222 -225 -1807 -1809 0
400 222 225 -1807 1809 0
400 -222 225 -1807 -1809 0
400 222 225 1807 -1809 0
400 -222 -225 -1807 1809 0
400 222 -225 1807 1809 0
400 -187 -217 1802 -1804 0
400 -187 217 1802 1804 0
400 187 -217 -1802 -1804 0
400 187 217 -1802 1804 0
400 -187 217 -1802 -1804 0
400 187 217 1802 -1804 0
400 -187 -217 -1802 1804 0
400 187 -217 1802 1804 0
400 -195 -214 746 -748 0
400 -195 214 746 748 0
400 195 -214 -746 -748 0
400 195 214 -746 748 0
400 -195 214 -746 -748 0
400 195 214 746 -748 0
400 -195 -214 -746 748 0
400 195 -214 746 748 0
400 -178 -199 753 -755 0
400 -178 199 753 755 0
400 178 -199 -753 -755 0
400 178 199 -753 755 0
400 -178 199 -753 -755 0
400 178 199 753 -755 0
400 -178 -199 -753 755 0
400 178 -199 753 755 0
400 -177 -178 1819 -1821 0
400 -177 178 1819 1821 0
400 177 -178 -1819 -1821 0
400 177 178 -1819 1821 0
400 -177 178 -1819 -1821 0
400 177 178 1819 -1821 0
400 -177 -178 -1819 1821 0
400 177 -178 1819 1821 0
400 -224 -251 664 -666 0
400 -224 251 664 666 0
400 224 -251 -664 -666 0
400 224 251 -664 666 0
400 -224 251 -664 -666 0
400 224 251 664 -666 0
400 -224 -251 -664 666 0
400 224 -251 664 666 0
400 -226 -241 1830 -1832 0
400 -226 241 1830 1832 0
400 226 -241 -1830 -1832 0
400 226 241 -1830 1832 0
400 -226 241 -1830 -1832 0
400 226 241 1830 -1832 0
400 -226 -241 -1830 1832 0
400 226 -241 1830 1832 0
400 -219 -221 1825 -1827 0
400 -219 221 1825 1827 0
400 219 -221 -1825 -1827 0
400 219 221 -1825 1827 0
400 -219 221 -1825 -1827 0
400 219 221 1825 -1827 0
400 -219 -221 -1825 1827 0
400 219 -221 1825 1827 0
400 -49 -50 1502 -1504 0
400 -49 50 1502 1504 0
400 49 -50 -1502 -1504 0
400 49 50 -1502 1504 0
400 -49 50 -1502 -1504 0
400 49 50 1502 -1504 0
400 -49 -50 -1502 1504 0
400 49 -50 1502 1504 0
400 -162 -166 1841 -1843 0
400 -162 166 1841 1843 0
400 162 -166 -1841 -1843 0
400 162 166 -1841 1843 0
400 -162 166 -1841 -1843 0
400 162 166 1841 -1843 0
400 -162 -166 -1841 1843 0
400 162 -166 1841 1843 0
400 -222 -225 1847 -1849 0
400 -222 225 1847 1849 0
400 222 -225 -1847 -1849 0
400 222 225 -1847 1849 0
400 -222 225 -1847 -1849 0
400 222 225 1847 -1849 0
400 -222 -225 -1847 1849 0
400 222 -225 1847 1849 0
400 9 -10 -11 -1330 0
400 9 -10 11 1330 0
400 -9 10 -11 -1330 0
400 -9 10 11 1330 0
400 -9 -10 11 -1330 0
400 9 10 11 -1330 0
400 -9 -10 -11 1330 0
400 9 10 -11 1330 0
400 -186 -187 1732 -1734 0
400 -186 187 1732 1734 0
400 186 -187 -1732 -1734 0
400 186 187 -1732 1734 0
400 -186 187 -1732 -1734 0
400 186 187 1732 -1734 0
400 -186 -187 -1732 1734 0
400 186 -187 1732 1734 0
400 -183 -202 662 -664 0
400 -183 202 662 664 0
400 183 -202 -662 -664 0
400 183 202 -662 664 0
400 -183 202 -662 -664 0
400 183 202 662 -664 0
400 -183 -202 -662 664 0
400 183 -202 662 664 0
400 -29 -31 1492 -1494 0
400 -29 31 1492 1494 0
400 29 -31 -1492 -1494 0
400 29 31 -1492 1494 0
400 -29 31 -1492 -1494 0
400 29 31 1492 -1494 0
400 -29 -31 -1492 1494 0
400 29 -31 1492 1494 0
400 -141 -146 1856 -1858 0
400 -141 146 1856 1858 0
400 141 -146 -1856 -1858 0
400 141 146 -1856 1858 0
400 -141 146 -1856 -1858 0
400 141 146 1856 -1858 0
400 -141 -146 -1856 1858 0
400 141 -146 1856 1858 0
400 -162 -165 1860 -1862 0
400 -162 165 1860 1862 0
400 162 -165 -1860 -1862 0
400 162 165 -1860 1862 0
400 -162 165 -1860 -1862 0
400 162 165 1860 -1862 0
400 -162 -165 -1860 1862 0
400 162 -165 1860 1862 0
400 -182 -183 1724 -1726 0
400 -182 183 1724 1726 0
400 182 -183 -1724 -1726 0
400 182 183 -1724 1726 0
400 -182 183 -1724 -1726 0
400 182 183 1724 -1726 0
400 -182 -183 -1724 1726 0
400 182 -183 1724 1726 0
400 -221 -222 1864 -1866 0
400 -221 222 1864 1866 0
400 221 -222 -1864 -1866 0
400 221 222 -1864 1866 0
400 -221 222 -1864 -1866 0
400 221 222 1864 -1866 0
400 -221 -222 -1864 1866 0
400 221 -222 1864 1866 0
400 -206 -207 1790 -1792 0
400 -206 207 1790 1792 0
400 206 -207 -1790 -1792 0
400 206 207 -1790 1792 0
400 -206 207 -1790 -1792 0
400 206 207 1790 -1792 0
400 -206 -207 -1790 1792 0
400 206 -207 1790 1792 0
400 -13 -19 936 -938 0
400 -13 19 936 938 0
400 13 -19 -936 -938 0
400 13 19 -936 938 0
400 -13 19 -936 -938 0
400 13 19 936 -938 0
400 -13 -19 -936 938 0
400 13 -19 936 938 0
400 -236 -249 748 -750 0
400 -236 249 748 750 0
400 236 -249 -748 -750 0
400 236 249 -748 750 0
400 -236 249 -748 -750 0
400 236 249 748 -750 0
400 -236 -249 -748 750 0
400 236 -249 748 750 0
400 10 -11 -12 -1500 0
400 10 -11 12 1500 0
400 -10 11 -12 -1500 0
400 -10 11 12 1500 0
400 -10 -11 12 -1500 0
400 10 11 12 -1500 0
400 -10 -11 -12 1500 0
400 10 11 -12 1500 0
400 5 -6 -7 -1322 0
400 5 -6 7 1322 0
400 -5 6 -7 -1322 0
400 -5 6 7 1322 0
400 -5 -6 7 -1322 0
400 5 6 7 -1322 0
400 -5 -6 -7 1322 0
400 5 6 -7 1322 0
400 -209 -231 852 -854 0
400 -209 231 852 854 0
400 209 -231 -852 -854 0
400 209 231 -852 854 0
400 -209 231 -852 -854 0
400 209 231 852 -854 0
400 -209 -231 -852 854 0
400 209 -231 852 854 0
400 138 -158 -178 -474 0
400 138 -158 178 474 0
400 -138 158 -178 -474 0
400 -138 158 178 474 0
400 -138 -158 178 -474 0
400 138 158 178 -474 0
400 -138 -158 -178 474 0
400 138 158 -178 474 0
400 -15 -17 950 -952 0
400 -15 17 950 952 0
400 15 -17 -950 -952 0
400 15 17 -950 952 0
400 -15 17 -950 -952 0
400 15 17 950 -952 0
400 -15 -17 -950 952 0
400 15 -17 950 952 0
400 -18 -109 958 -960 0
400 -18 109 958 960 0
400 18 -109 -958 -960 0
400 18 109 -958 960 0
400 -18 109 -958 -960 0
400 18 109 958 -960 0
400 -18 -109 -958 960 0
400 18 -109 958 960 0
400 3 -5 -12 -964 0
400 3 -5 12 964 0
400 -3 5 -12 -964 0
400 -3 5 12 964 0
400 -3 -5 12 -964 0
400 3 5 12 -964 0
400 -3 -5 -12 964 0
400 3 5 -12 964 0
400 139 -159 -179 -481 0
400 139 -159 179 481 0
400 -139 159 -179 -481 0
400 -139 159 179 481 0
400 -139 -159 179 -481 0
400 139 159 179 -481 0
400 -139 -159 -179 481 0
400 139 159 -179 481 0
400 -9 -14 970 -972 0
400 -9 14 970 972 0
400 9 -14 -970 -972 0
400 9 14 -970 972 0
400 -9 14 -970 -972 0
400 9 14 970 -972 0
400 -9 -14 -970 972 0
400 9 -14 970 972 0
400 -20 -111 972 -974 0
400 -20 111 972 974 0
400 20 -111 -972 -974 0
400 20 111 -972 974 0
400 -20 111 -972 -974 0
400 20 111 972 -974 0
400 -20 -111 -972 974 0
400 20 -111 972 974 0
400 140 -160 -180 -488 0
400 140 -160 180 488 0
400 -140 160 -180 -488 0
400 -140 160 180 488 0
400 -140 -160 180 -488 0
400 140 160 180 -488 0
400 -140 -160 -180 488 0
400 140 160 -180 488 0
400 -40 -104 979 -981 0
400 -40 104 979 981 0
400 40 -104 -979 -981 0
400 40 104 -979 981 0
400 -40 104 -979 -981 0
400 40 104 979 -981 0
400 -40 -104 -979 981 0
400 40 -104 979 981 0
400 -165 -166 1710 -1712 0
400 -165 166 1710 1712 0
400 165 -166 -1710 -1712 0
400 165 166 -1710 1712 0
400 -165 166 -1710 -1712 0
400 165 166 1710 -1712 0
400 -165 -166 -1710 1712 0
400 165 -166 1710 1712 0
400 23 -27 -31 -985 0
400 23 -27 31 985 0
400 -23 27 -31 -985 0
400 -23 27 31 985 0
400 -23 -27 31 -985 0
400 23 27 31 -985 0
400 -23 -27 -31 985 0
400 23 27 -31 985 0
400 151 -169 -192 -852 0
400 151 -169 192 852 0
400 -151 169 -192 -852 0
400 -151 169 192 852 0
400 -151 -169 192 -852 0
400 151 169 192 -852 0
400 -151 -169 -192 852 0
400 151 169 -192 852 0
400 -198 -219 495 -497 0
400 -198 219 495 497 0
400 198 -219 -495 -497 0
400 198 219 -495 497 0
400 -198 219 -495 -497 0
400 198 219 495 -497 0
400 -198 -219 -495 497 0
400 198 -219 495 497 0
400 -35 -37 1006 -1008 0
400 -35 37 1006 1008 0
400 35 -37 -1006 -1008 0
400 35 37 -1006 1008 0
400 -35 37 -1006 -1008 0
400 35 37 1006 -1008 0
400 -35 -37 -1006 1008 0
400 35 -37 1006 1008 0
400 142 -162 -182 -502 0
400 142 -162 182 502 0
400 -142 162 -182 -502 0
400 -142 162 182 502 0
400 -142 -162 182 -502 0
400 142 162 182 -502 0
400 -142 -162 -182 502 0
400 142 162 -182 502 0
400 143 -164 -182 -656 0
400 143 -164 182 656 0
400 -143 164 -182 -656 0
400 -143 164 182 656 0
400 -143 -164 182 -656 0
400 143 164 182 -656 0
400 -143 -164 -182 656 0
400 143 164 -182 656 0
400 -230 -264 846 -848 0
400 -230 264 846 848 0
400 230 -264 -846 -848 0
400 230 264 -846 848 0
400 -230 264 -846 -848 0
400 230 264 846 -848 0
400 -230 -264 -846 848 0
400 230 -264 846 848 0
400 -38 -105 1014 -1016 0
400 -38 105 1014 1016 0
400 38 -105 -1014 -1016 0
400 38 105 -1014 1016 0
400 -38 105 -1014 -1016 0
400 38 105 1014 -1016 0
400 -38 -105 -1014 1016 0
400 38 -105 1014 1016 0
400 143 -163 -183 -509 0
400 143 -163 183 509 0
400 -143 163 -183 -509 0
400 -143 163 183 509 0
400 -143 -163 183 -509 0
400 143 163 183 -509 0
400 -143 -163 -183 509 0
400 143 163 -183 509 0
400 -39 -106 1021 -1023 0
400 -39 106 1021 1023 0
400 39 -106 -1021 -1023 0
400 39 106 -1021 1023 0
400 -39 106 -1021 -1023 0
400 39 106 1021 -1023 0
400 -39 -106 -1021 1023 0
400 39 -106 1021 1023 0
