p wcnf 12 46 17
17 -5 -12 -10 0
17 -2 7 -9 0
17 -4 3 11 0
17 -2 1 4 0
17 -11 9 -1 0
17 -11 8 9 0
17 -8 11 -5 0
17 -10 4 -3 0
17 -8 5 3 0
17 -1 8 -7 0
17 -9 -4 -5 0
17 -4 -7 -8 0
17 -12 2 -1 0
17 -3 -9 -10 0
17 -1 8 12 0
17 -9 6 3 0
17 -7 2 6 0
17 -2 4 5 0
17 -9 -10 -7 0
17 -7 -10 12 0
17 -3 11 -2 0
17 -8 11 -4 0
17 -12 4 -7 0
17 -2 9 12 0
17 -10 -3 -4 0
17 -2 -3 10 0
17 -3 -12 2 0
17 -6 4 3 0
17 -7 6 -5 0
17 -2 7 8 0
1 1 0
1 2 0
1 3 0
1 4 0
1 5 0
1 6 0
1 7 0
1 8 0
1 9 0
1 10 0
1 11 0
1 12 0
1 -1 0
1 -2 0
1 -3 0
1 -4 0
