p wcnf 12 46 17
17 -8 10 5 0
17 -5 12 2 0
17 -2 1 5 0
17 -10 -9 -4 0
17 -2 12 -7 0
17 -2 -10 12 0
17 -11 10 9 0
17 -10 8 -12 0
17 -12 1 3 0
17 -6 1 -7 0
17 -7 -9 10 0
17 -3 1 5 0
17 -12 -3 -10 0
17 -6 -5 -11 0
17 -1 -8 -3 0
17 -6 11 10 0
17 -6 -10 1 0
17 -7 -3 -10 0
17 -12 4 -9 0
17 -8 -5 1 0
17 -8 3 5 0
17 -1 12 -5 0
17 -9 -1 -12 0
17 -11 5 4 0
17 -5 2 -12 0
17 -8 4 -12 0
17 -3 2 9 0
17 -2 1 3 0
17 -12 9 10 0
17 -9 -5 1 0
1 1 0
1 2 0
1 3 0
1 4 0
1 5 0
1 6 0
1 7 0
1 8 0
1 9 0
1 10 0
1 11 0
1 12 0
1 -1 0
1 -2 0
1 -3 0
1 -4 0
