p wcnf 12 42 13
13 -11 -8 4 0
13 -6 -11 -1 0
13 -5 10 -6 0
13 -6 10 -3 0
13 -3 -6 10 0
13 -11 5 2 0
13 -4 11 -1 0
13 -6 11 -3 0
13 -5 -9 1 0
13 -9 -7 -10 0
13 -2 1 -12 0
13 -2 -3 12 0
13 -10 -7 4 0
13 -4 8 1 0
13 -3 7 10 0
13 -11 -1 7 0
13 -3 11 -9 0
13 -9 3 -11 0
13 -5 -10 -12 0
13 -1 11 -10 0
13 -12 -11 1 0
13 -10 1 -12 0
13 -6 9 -8 0
13 -7 3 11 0
13 -9 7 -12 0
13 -12 3 -6 0
13 -5 3 -1 0
13 -12 -8 -11 0
13 -2 9 5 0
13 -6 9 -7 0
1 1 0
1 2 0
1 3 0
1 4 0
1 5 0
1 6 0
1 7 0
1 8 0
1 9 0
1 10 0
1 11 0
1 12 0
