p wcnf 12 42 13
13 -1 10 -3 0
13 -8 -4 10 0
13 -5 12 -4 0
13 -2 -6 11 0
13 -8 2 7 0
13 -7 6 -1 0
13 -11 -2 10 0
13 -4 -3 -11 0
13 -12 -1 8 0
13 -10 3 5 0
13 -7 12 -10 0
13 -1 3 -9 0
13 -5 -8 -10 0
13 -3 10 1 0
13 -3 11 1 0
13 -2 -11 7 0
13 -3 -2 7 0
13 -3 9 -4 0
13 -11 5 12 0
13 -5 3 -1 0
13 -11 -4 -8 0
13 -6 12 -11 0
13 -12 5 -10 0
13 -10 -6 -4 0
13 -4 11 -1 0
13 -11 12 -6 0
13 -2 8 -6 0
13 -7 -8 -2 0
13 -4 -1 7 0
13 -9 -5 -3 0
1 1 0
1 2 0
1 3 0
1 4 0
1 5 0
1 6 0
1 7 0
1 8 0
1 9 0
1 10 0
1 11 0
1 12 0
