p wcnf 18 65 16
16 -7 -12 0
16 15 3 8 2 0
16 6 11 4 -1 0
16 11 16 0
16 2 6 -15 0
16 -18 -1 0
16 -8 -17 14 0
16 -11 -15 5 4 0
16 17 11 -6 0
16 6 17 -4 0
16 -11 -15 -18 -16 0
16 -14 3 -17 0
16 5 -14 0
16 -3 -12 -5 10 0
16 -1 -18 9 -15 0
16 -13 12 0
16 9 -3 0
16 4 12 6 0
16 18 9 -1 0
16 -1 11 -17 -9 0
16 14 16 8 0
16 -9 5 0
16 -11 -8 0
16 15 18 0
16 4 17 0
16 11 -16 13 0
16 11 1 0
16 11 18 -5 8 0
16 3 -10 1 0
16 16 -8 0
16 -14 -13 -18 0
16 -17 15 -11 -13 0
16 -13 1 0
16 -14 -10 -15 6 0
16 -4 5 0
16 7 9 -8 -16 0
16 -9 5 7 10 0
16 -15 16 0
16 2 6 -5 -1 0
16 -6 16 -4 0
16 -14 4 -6 0
16 -9 -6 -12 0
16 18 -14 17 0
16 -18 -4 -13 0
16 -13 -17 0
16 11 -16 0
16 17 -14 -3 0
16 -10 7 9 0
16 -10 -16 0
16 15 16 0
1 -11 0
1 -11 -13 0
1 18 2 0
1 6 0
1 18 0
1 -9 0
1 10 4 0
1 8 -17 0
1 2 0
1 17 -15 0
1 -16 0
1 -5 0
1 10 0
1 -1 0
1 -4 -18 0
