p wcnf 13 50 20
20 -8 6 0
20 13 10 2 -5 0
20 5 6 0
20 -3 -11 0
20 -6 -12 0
20 7 4 -10 -12 0
20 -3 11 13 10 0
20 2 12 -5 0
20 -3 2 -7 -5 0
20 -8 2 0
20 -9 -12 4 0
20 3 8 0
20 4 3 12 0
20 3 7 0
20 -8 -6 11 0
20 -10 -7 -9 0
20 2 9 0
20 1 3 6 -11 0
20 9 -4 -1 0
20 -8 1 11 0
20 8 4 -7 2 0
20 11 -7 -12 -5 0
20 4 -12 -8 0
20 11 5 0
20 -8 9 -12 -4 0
20 -7 12 11 0
20 8 -3 5 0
20 -1 -3 -2 -7 0
20 -8 10 7 0
20 -10 2 4 0
20 -12 4 13 0
1 -13 0
1 -9 0
1 -6 0
1 13 0
1 5 11 0
1 10 0
1 -5 -13 0
1 13 0
1 4 0
1 -5 0
1 5 4 0
1 5 -12 0
1 -9 0
1 11 5 0
1 -2 -11 0
1 -13 -2 0
1 8 0
1 6 0
1 4 -13 0
