p wcnf 19 58 12
12 -4 -3 12 0
12 18 -17 5 0
12 -1 -14 19 -5 0
12 15 12 0
12 -1 -10 0
12 -12 5 8 0
12 4 2 7 0
12 5 -1 0
12 -3 -2 0
12 15 17 11 0
12 -16 -13 -9 -3 0
12 3 1 12 0
12 -17 12 0
12 -16 8 2 18 0
12 -15 -10 -7 6 0
12 -19 -5 0
12 -4 -18 -11 0
12 4 19 0
12 -3 19 0
12 11 3 -8 0
12 17 3 0
12 -4 -15 18 -1 0
12 14 17 0
12 -8 -5 -17 0
12 -11 1 -7 17 0
12 -7 -3 1 0
12 6 -8 7 0
12 -12 10 8 0
12 -18 -10 0
12 -11 10 0
12 -5 17 0
12 8 -11 7 12 0
12 8 -19 0
12 -4 -7 0
12 -13 2 -18 0
12 1 -15 0
12 -9 -3 -1 17 0
12 6 -12 -7 -10 0
12 -13 -7 17 0
12 -1 9 -3 0
12 19 -7 2 -13 0
12 4 3 -16 0
12 10 -1 0
12 18 -1 12 0
12 18 8 0
12 -3 14 6 0
12 18 -15 0
1 -8 13 0
1 -7 11 0
1 6 -5 0
1 18 0
1 17 0
1 -14 10 0
1 -2 0
1 10 0
1 14 0
1 15 18 0
1 7 0
