p wcnf 18 46 11
11 18 -3 0
11 6 5 -16 2 0
11 -5 18 9 0
11 -5 6 7 0
11 14 2 0
11 -1 6 12 16 0
11 -13 16 6 -14 0
11 -9 18 16 0
11 3 10 -17 0
11 -4 11 -16 -7 0
11 -12 15 -1 -16 0
11 17 8 0
11 1 -12 0
11 -18 10 0
11 3 -5 9 0
11 14 -17 0
11 3 -14 -17 -12 0
11 -15 4 0
11 -14 1 -17 0
11 -18 1 -12 0
11 18 -13 -3 0
11 -12 -18 2 0
11 -4 6 10 0
11 -14 -17 0
11 15 11 -7 -17 0
11 -5 -2 0
11 11 -7 9 -6 0
11 16 2 -13 0
11 -17 18 0
11 9 3 0
11 16 10 18 0
11 16 9 8 12 0
11 -16 -15 0
11 6 -10 0
11 -8 12 -3 0
11 -4 10 -5 0
1 13 0
1 1 0
1 3 0
1 1 -8 0
1 4 0
1 3 18 0
1 -4 16 0
1 1 0
1 -4 -17 0
1 14 0
