p wcnf 17 46 14
14 10 5 0
14 8 -17 -14 1 0
14 16 -8 0
14 -9 8 12 5 0
14 -3 -6 14 -12 0
14 4 8 0
14 -14 16 -17 -12 0
14 6 12 5 0
14 1 -17 -4 12 0
14 -6 3 0
14 3 -8 -5 4 0
14 17 5 -15 -13 0
14 7 -6 -9 0
14 -16 12 -13 -17 0
14 2 -14 -1 -4 0
14 13 -4 16 0
14 9 17 -5 2 0
14 14 -3 -16 0
14 -10 17 2 0
14 -6 -2 16 -8 0
14 -11 -1 -15 0
14 7 -9 -2 -11 0
14 -3 8 0
14 -4 17 -9 0
14 16 -7 12 0
14 8 -11 -15 -5 0
14 -9 -16 13 15 0
14 9 -13 8 -17 0
14 16 15 4 2 0
14 -17 -11 -10 0
14 9 -17 14 0
14 -9 15 5 0
14 17 11 0
1 -8 14 0
1 -9 11 0
1 10 0
1 -13 7 0
1 6 -5 0
1 -15 0
1 -12 0
1 -4 0
1 -15 0
1 -10 8 0
1 17 13 0
1 -14 0
1 1 0
