p wcnf 20 78 21
21 -8 9 19 0
21 -6 -11 2 -19 0
21 7 -3 13 -8 0
21 -6 -15 0
21 -19 18 0
21 -19 -16 17 0
21 -18 -20 0
21 19 18 -12 -2 0
21 18 16 5 -11 0
21 -17 10 6 -2 0
21 -9 13 -14 0
21 3 6 20 0
21 7 -19 0
21 -15 -11 0
21 18 20 3 17 0
21 8 2 3 13 0
21 -14 6 -12 0
21 17 2 8 -18 0
21 -8 15 -3 -19 0
21 1 4 19 2 0
21 10 19 11 16 0
21 18 19 12 8 0
21 14 -5 -6 11 0
21 1 -20 -14 0
21 -2 20 -12 0
21 10 -20 0
21 9 10 0
21 -5 -6 18 0
21 6 20 -19 -12 0
21 -4 3 0
21 -6 18 -16 0
21 14 -18 -16 0
21 -5 -15 0
21 18 -11 1 0
21 -7 -19 16 -2 0
21 20 18 19 0
21 -14 -4 3 0
21 -8 1 0
21 -19 -13 0
21 -7 13 -3 0
21 -1 9 0
21 -1 7 0
21 20 -4 -16 0
21 17 -15 -13 0
21 -3 -18 -12 -2 0
21 9 -12 5 0
21 5 -17 0
21 -12 -17 -15 -11 0
21 -19 8 15 0
21 -5 -17 0
21 -16 8 7 0
21 8 2 11 18 0
21 16 -11 -17 0
21 -13 8 14 0
21 3 -18 -7 -6 0
21 -4 11 0
21 1 10 17 0
21 -4 5 20 0
1 -3 0
1 -4 0
1 6 0
1 -7 11 0
1 -18 12 0
1 7 0
1 2 -19 0
1 -5 0
1 5 0
1 13 0
1 17 0
1 17 8 0
1 1 -12 0
1 -6 0
1 15 9 0
1 -20 0
1 3 19 0
1 -8 0
1 -15 0
1 20 -9 0
