p wcnf 19 41 15
15 4 -2 0
15 -9 15 1 0
15 8 5 2 0
15 -17 11 0
15 19 -4 15 0
15 -18 4 15 -9 0
15 -15 19 0
15 -19 -2 13 0
15 3 9 -8 -5 0
15 -2 -6 16 8 0
15 -14 -13 0
15 2 1 5 0
15 -11 10 13 0
15 16 -3 -12 9 0
15 5 -9 17 0
15 -3 6 0
15 -1 -9 0
15 -19 3 6 0
15 4 8 0
15 -5 1 -4 0
15 -5 14 -12 -9 0
15 -2 -17 7 5 0
15 -10 -16 13 6 0
15 -18 -7 -12 11 0
15 5 -9 -19 7 0
15 13 -5 6 -16 0
15 -9 -5 2 -7 0
1 -5 0
1 -18 0
1 2 0
1 -16 0
1 19 0
1 18 14 0
1 7 0
1 19 3 0
1 -6 0
1 -19 0
1 -10 0
1 10 0
1 9 0
1 -16 0
