p wcnf 15 48 10
10 15 14 -5 -6 0
10 -2 -9 -7 -10 0
10 -13 4 0
10 -8 15 10 -14 0
10 -13 9 -12 -1 0
10 1 -14 2 0
10 -1 -15 11 4 0
10 -12 -8 13 0
10 -14 3 13 0
10 7 -4 0
10 2 5 14 3 0
10 -1 -4 3 -8 0
10 -15 9 0
10 -2 -9 0
10 8 12 0
10 -1 -5 8 12 0
10 2 12 15 8 0
10 12 -15 -6 0
10 -9 12 0
10 15 13 -3 9 0
10 -2 1 0
10 -6 3 -13 15 0
10 -15 13 10 14 0
10 8 -5 12 0
10 10 11 0
10 4 -9 6 13 0
10 9 2 11 -14 0
10 4 -3 -12 -8 0
10 -1 2 6 11 0
10 -7 12 5 8 0
10 -13 -1 0
10 -8 7 0
10 7 -11 10 13 0
10 -5 -6 11 0
10 15 -4 0
10 14 -6 -11 15 0
10 11 12 15 10 0
10 -8 7 0
10 9 -5 -4 10 0
1 14 3 0
1 -15 0
1 -8 0
1 1 -2 0
1 14 -9 0
1 11 0
1 -14 -12 0
1 -7 0
1 11 0
