p wcnf 16 46 14
14 5 11 16 0
14 10 -16 -2 12 0
14 3 7 9 0
14 -9 -3 -5 -8 0
14 -7 -12 0
14 -15 13 -14 -16 0
14 14 5 0
14 4 -1 0
14 12 15 9 0
14 -10 -1 -13 11 0
14 16 10 2 0
14 -4 15 -1 0
14 -4 14 13 0
14 -6 -15 0
14 7 -8 14 -15 0
14 -15 8 0
14 1 -7 -14 -2 0
14 -14 15 -9 0
14 -10 -16 0
14 -3 16 -2 1 0
14 9 7 -13 0
14 14 -15 0
14 -11 -4 -6 16 0
14 -3 -16 13 11 0
14 -5 6 0
14 -3 -1 10 0
14 -2 9 0
14 8 6 0
14 6 14 -3 0
14 -11 -3 -14 -7 0
14 -13 15 6 0
14 -15 14 -2 0
14 -6 -14 7 -10 0
1 -13 0
1 2 1 0
1 -16 7 0
1 8 0
1 4 -3 0
1 -3 -5 0
1 16 8 0
1 -5 0
1 -9 -16 0
1 8 0
1 -8 13 0
1 15 0
1 -1 0
