p wcnf 14 48 16
16 -6 -9 0
16 -8 -14 0
16 -7 1 -8 4 0
16 6 -9 0
16 9 3 0
16 11 8 -10 0
16 14 5 -12 0
16 -13 4 8 0
16 6 7 -8 0
16 11 -9 12 0
16 5 6 -14 1 0
16 -14 -6 -3 0
16 -13 -9 -7 11 0
16 10 9 -6 14 0
16 11 4 6 14 0
16 -14 12 5 0
16 -13 -14 10 4 0
16 -5 4 -13 2 0
16 1 10 0
16 1 -12 -3 0
16 10 -5 -12 0
16 3 4 11 0
16 9 -10 -7 -3 0
16 9 5 -2 0
16 -6 -11 0
16 12 4 0
16 -8 7 -2 -9 0
16 -11 13 0
16 9 -10 5 -1 0
16 12 -14 -11 -2 0
16 -1 6 -5 -13 0
16 -9 3 -5 0
16 10 -11 0
1 -14 0
1 3 0
1 12 3 0
1 -11 9 0
1 12 0
1 9 -14 0
1 -13 2 0
1 12 0
1 -11 13 0
1 4 0
1 10 0
1 14 2 0
1 -5 0
1 14 2 0
1 13 0
