p wcnf 17 40 9
9 12 6 16 -17 0
9 17 3 9 0
9 -6 -2 -16 17 0
9 14 3 0
9 3 15 -12 0
9 6 10 -2 0
9 -9 -7 13 8 0
9 10 -11 3 -17 0
9 -12 -9 -3 0
9 -4 16 8 0
9 -12 10 -13 -9 0
9 9 -13 14 -11 0
9 5 16 -12 0
9 15 17 0
9 8 5 -2 0
9 6 -16 -8 0
9 8 16 -15 7 0
9 -4 -1 13 0
9 11 -7 0
9 -10 -13 12 0
9 -15 -5 0
9 -13 11 -10 0
9 -17 13 0
9 10 13 -2 4 0
9 13 6 17 0
9 -8 -13 -14 -10 0
9 12 15 -17 0
9 10 3 9 -15 0
9 3 2 1 11 0
9 9 4 0
9 5 -10 17 -4 0
9 14 -17 0
1 17 0
1 14 0
1 -1 -7 0
1 14 -1 0
1 8 0
1 12 0
1 10 0
1 -4 -12 0
