p wcnf 20 50 21
21 -3 -2 -5 -13 0
21 12 -17 0
21 -18 -6 -2 -5 0
21 13 -1 0
21 3 -10 0
21 -11 -9 8 0
21 1 18 0
21 1 14 -7 -15 0
21 13 -10 -2 0
21 4 -14 0
21 -1 -11 -15 0
21 8 -10 9 19 0
21 14 20 0
21 -13 -17 0
21 7 -4 -2 0
21 -20 -13 15 0
21 -9 -6 -18 0
21 -1 11 15 7 0
21 -19 -8 0
21 -17 13 6 0
21 -8 -16 0
21 -12 19 1 11 0
21 -4 2 7 -20 0
21 -3 6 -15 0
21 13 -20 0
21 -13 -2 -18 0
21 -19 -15 -12 0
21 -19 20 0
21 20 8 -16 0
21 6 -19 0
1 1 0
1 16 1 0
1 -7 0
1 12 0
1 -8 0
1 10 0
1 -20 0
1 12 0
1 -2 0
1 18 0
1 -4 -9 0
1 -8 -13 0
1 -15 0
1 -9 0
1 -5 0
1 -13 0
1 -5 -3 0
1 -13 0
1 8 0
1 19 0
