p wcnf 18 54 14
14 -8 -10 0
14 11 -16 -12 -18 0
14 -15 1 7 14 0
14 -7 -10 0
14 5 -15 -16 0
14 -11 -18 -1 4 0
14 5 11 1 16 0
14 6 -13 0
14 -11 -3 0
14 3 -7 0
14 5 9 14 -12 0
14 9 -13 0
14 -4 10 -13 0
14 11 2 0
14 -11 8 14 -2 0
14 14 6 -13 0
14 2 15 0
14 -2 12 7 0
14 -1 18 0
14 9 -14 -7 0
14 -16 10 0
14 6 13 5 0
14 5 18 6 0
14 -11 9 0
14 18 -9 3 0
14 4 13 18 0
14 -7 -14 0
14 -18 2 8 0
14 10 -12 -1 8 0
14 -9 13 0
14 10 14 3 0
14 14 -7 0
14 -12 -7 15 2 0
14 -16 -3 6 0
14 17 11 3 0
14 -17 13 -3 14 0
14 1 -4 7 0
14 14 13 15 10 0
14 17 -1 0
14 -11 -9 -7 -15 0
14 4 8 16 17 0
1 1 -15 0
1 9 -15 0
1 -12 0
1 -10 0
1 2 0
1 9 0
1 14 0
1 -6 0
1 15 1 0
1 14 0
1 -11 -1 0
1 16 3 0
1 10 -2 0
