p wcnf 19 53 8
8 5 -14 6 -15 0
8 4 -18 0
8 -13 -6 -4 0
8 2 4 6 7 0
8 6 -5 4 0
8 -10 -19 3 0
8 4 15 1 0
8 -16 19 -10 0
8 -15 2 -10 12 0
8 -17 5 -4 0
8 2 -6 0
8 16 8 -12 -4 0
8 -12 19 2 9 0
8 8 -12 -3 0
8 8 -17 1 -2 0
8 -19 13 8 0
8 8 15 0
8 13 5 -15 0
8 -15 4 16 0
8 6 16 -11 0
8 -13 8 -7 0
8 15 -3 0
8 -5 -6 16 0
8 13 2 12 0
8 -6 8 16 19 0
8 -10 -18 13 -19 0
8 -12 -14 -13 -5 0
8 -17 -15 -1 -13 0
8 -12 1 0
8 -3 -11 5 0
8 19 -8 -14 0
8 -18 -17 0
8 2 6 0
8 16 14 -1 0
8 -18 -2 16 0
8 12 10 0
8 -11 -10 1 -8 0
8 -5 -18 9 0
8 18 -4 0
8 12 9 16 0
8 -12 -19 9 0
8 17 -1 8 -3 0
8 11 -7 -19 0
8 18 -19 0
8 -16 -4 -2 8 0
8 -17 6 0
1 -4 8 0
1 17 10 0
1 -15 0
1 -11 19 0
1 11 0
1 9 0
1 8 0
