p wcnf 20 45 16
16 3 18 7 -4 0
16 -16 -13 -19 0
16 7 -9 0
16 -9 16 0
16 -3 -1 8 0
16 5 18 -1 0
16 11 -19 0
16 -20 12 17 16 0
16 -10 -9 0
16 14 -4 0
16 19 -5 -17 14 0
16 -10 -19 11 -6 0
16 11 5 0
16 8 1 0
16 -8 12 -6 7 0
16 10 -8 0
16 -4 8 2 0
16 -1 3 0
16 3 -12 -15 0
16 -15 -4 3 0
16 -11 16 19 0
16 -14 9 -4 0
16 7 12 -11 0
16 16 -6 -2 -14 0
16 15 -17 -9 -19 0
16 -1 17 -8 -2 0
16 8 -13 -7 14 0
16 7 12 -16 0
16 -19 10 14 0
16 -15 -6 0
1 -15 0
1 17 12 0
1 13 0
1 -7 0
1 -20 -18 0
1 -13 12 0
1 -1 9 0
1 -3 0
1 3 -5 0
1 4 0
1 -7 0
1 -11 0
1 -18 0
1 -2 -3 0
1 -1 0
