p wcnf 20 66 21
21 -4 12 -13 2 0
21 2 -10 0
21 -14 -15 0
21 17 2 0
21 17 2 -13 0
21 -1 -20 -12 0
21 -13 10 -11 0
21 -20 -16 9 -1 0
21 -6 12 0
21 -15 2 6 0
21 11 6 19 -7 0
21 -2 -9 15 -13 0
21 -8 4 0
21 -16 8 0
21 -15 -18 0
21 16 6 0
21 -17 1 16 -13 0
21 6 17 0
21 10 6 0
21 8 -9 -12 19 0
21 9 -3 -1 -8 0
21 1 13 3 -20 0
21 -9 -16 3 1 0
21 -17 3 0
21 -18 6 0
21 -15 -8 10 -17 0
21 -19 -2 -20 0
21 10 6 0
21 15 -10 -16 0
21 -19 -15 10 0
21 -8 -16 0
21 9 -20 -7 6 0
21 8 -16 0
21 -12 -5 3 4 0
21 -6 10 -19 0
21 15 -5 0
21 -3 -11 -10 6 0
21 -13 18 0
21 -13 -19 3 12 0
21 -14 20 18 0
21 16 -3 -15 7 0
21 2 6 0
21 -8 16 0
21 8 1 -6 0
21 15 4 0
21 9 -1 -12 -15 0
1 -1 0
1 -10 0
1 -15 0
1 9 0
1 -16 0
1 9 0
1 -15 0
1 -9 0
1 1 -8 0
1 -4 0
1 -4 0
1 -10 0
1 8 -14 0
1 4 0
1 16 15 0
1 10 0
1 6 0
1 5 0
1 -14 0
1 1 0
