p wcnf 13 56 21
21 8 2 1 0
21 -7 2 11 1 0
21 -6 12 7 0
21 -5 -3 0
21 -6 -12 0
21 -13 -5 0
21 -3 -7 -11 6 0
21 -9 -3 -6 -5 0
21 -12 -11 -10 8 0
21 4 1 11 -2 0
21 9 -4 0
21 -9 2 -5 0
21 10 -9 0
21 9 4 -11 -6 0
21 11 10 13 8 0
21 3 11 2 5 0
21 -1 -3 2 5 0
21 -7 -6 0
21 10 4 0
21 -11 -7 0
21 -5 6 0
21 3 6 0
21 -13 12 -5 -2 0
21 5 -13 1 9 0
21 11 9 -12 0
21 -5 -1 -2 0
21 5 4 3 0
21 -12 6 0
21 4 -9 13 0
21 -12 -6 0
21 11 5 0
21 -6 -7 9 0
21 8 11 -13 10 0
21 3 7 0
21 -5 -12 7 0
21 3 5 8 0
1 -11 0
1 7 0
1 11 0
1 -6 -7 0
1 -1 0
1 -10 0
1 6 1 0
1 13 4 0
1 -3 0
1 -5 -10 0
1 3 0
1 -1 0
1 1 0
1 12 8 0
1 -11 0
1 10 0
1 -7 0
1 -4 1 0
1 13 10 0
1 9 0
