p wcnf 14 46 16
16 7 8 10 2 0
16 -7 6 11 5 0
16 6 -3 -9 -10 0
16 13 -4 0
16 8 3 12 0
16 9 1 7 13 0
16 10 -7 11 0
16 -12 8 0
16 3 -6 -8 0
16 -2 10 0
16 1 8 0
16 -11 9 -4 0
16 12 -7 0
16 -2 11 1 13 0
16 14 1 -6 -3 0
16 11 5 0
16 3 11 -13 4 0
16 -5 -12 0
16 -10 -8 -1 0
16 7 14 -10 9 0
16 2 9 13 1 0
16 13 7 -8 0
16 3 11 0
16 -7 -2 0
16 -7 10 -13 4 0
16 13 9 0
16 11 14 0
16 8 13 -14 -2 0
16 12 8 10 -14 0
16 13 -1 7 11 0
16 11 2 8 12 0
1 -12 0
1 -14 0
1 10 0
1 9 0
1 -3 10 0
1 -3 0
1 2 0
1 -9 0
1 -7 0
1 -12 -2 0
1 -9 0
1 -3 0
1 12 0
1 6 0
1 -14 0
