p wcnf 20 65 14
14 5 8 -13 -15 0
14 -18 10 11 16 0
14 3 -19 0
14 12 20 8 -19 0
14 5 -9 -2 0
14 15 12 11 0
14 -2 6 0
14 -12 9 0
14 -8 11 0
14 -13 11 0
14 4 -6 15 0
14 -8 14 -6 0
14 -1 -16 -11 0
14 -11 15 4 18 0
14 -3 -12 7 -1 0
14 1 -3 -16 0
14 13 -12 16 0
14 -15 2 -17 0
14 6 9 8 -10 0
14 -14 7 12 -2 0
14 -12 1 4 0
14 3 -20 -14 16 0
14 -16 -20 -15 0
14 -10 -2 14 18 0
14 19 7 0
14 10 -18 15 0
14 1 12 -8 0
14 -17 -4 -2 0
14 -20 -11 -14 2 0
14 10 -16 14 0
14 -19 -9 15 0
14 5 -12 0
14 18 -5 17 0
14 -19 20 -18 0
14 -15 -3 -9 0
14 13 -8 -16 14 0
14 -9 15 -2 0
14 19 20 -16 0
14 14 7 0
14 -19 18 0
14 6 -7 -15 -20 0
14 -2 -10 0
14 17 -20 0
14 3 13 0
14 6 -19 0
14 14 2 0
14 -8 -2 -17 -1 0
14 14 5 15 0
14 5 19 13 9 0
14 16 8 6 -20 0
14 -3 -19 -6 -16 0
14 13 10 -20 19 0
1 -18 20 0
1 -9 0
1 -16 0
1 5 0
1 -5 0
1 -3 0
1 -3 0
1 14 0
1 -2 0
1 6 0
1 -11 0
1 8 -3 0
1 9 20 0
