p wcnf 16 46 17
17 3 7 11 0
17 -4 11 -9 0
17 16 -6 5 10 0
17 15 2 0
17 -2 4 -13 0
17 8 -2 6 -1 0
17 16 8 4 -6 0
17 -4 10 2 7 0
17 1 16 -12 0
17 10 14 6 3 0
17 -11 13 -1 3 0
17 2 -9 0
17 13 -5 11 0
17 10 -14 7 -2 0
17 -11 -12 0
17 2 -14 -6 7 0
17 -8 13 6 0
17 -2 -1 0
17 -13 -12 11 0
17 -1 -2 15 0
17 -3 2 0
17 -13 14 6 0
17 12 -5 1 8 0
17 -6 11 8 -1 0
17 -4 -7 15 0
17 7 14 0
17 4 8 0
17 -6 -5 16 -13 0
17 -11 6 9 -12 0
17 8 -7 16 0
1 -8 -4 0
1 -3 14 0
1 15 4 0
1 13 0
1 1 16 0
1 -14 -1 0
1 -7 0
1 -2 0
1 -2 0
1 12 0
1 16 0
1 -16 0
1 -13 0
1 9 0
1 11 4 0
1 -5 0
