p wcnf 17 65 18
18 8 16 -12 0
18 -15 -14 -17 -11 0
18 -2 -4 11 0
18 5 2 0
18 17 3 7 8 0
18 8 16 11 0
18 7 15 11 0
18 -15 7 -12 0
18 -11 9 -10 0
18 -16 13 0
18 -10 12 0
18 -13 -8 15 -5 0
18 -9 7 -17 0
18 3 -13 0
18 10 -2 14 3 0
18 15 3 0
18 -3 17 0
18 -11 -16 0
18 -5 -6 -12 -9 0
18 -10 12 0
18 -4 9 6 1 0
18 14 -17 10 4 0
18 10 13 -5 0
18 -4 -13 -16 -15 0
18 9 2 -14 16 0
18 -1 -4 12 0
18 8 6 -4 17 0
18 -3 2 13 8 0
18 -17 -8 1 0
18 13 1 0
18 1 16 0
18 -1 -13 11 0
18 16 13 0
18 -15 17 -5 -11 0
18 -12 -13 14 0
18 16 17 -11 0
18 13 14 -1 0
18 -3 -12 -8 -5 0
18 -3 9 0
18 13 8 0
18 7 11 5 -4 0
18 1 -14 -11 0
18 2 16 0
18 15 5 17 11 0
18 -1 -12 14 0
18 -3 13 0
18 -17 7 -13 2 0
18 -3 4 0
1 1 0
1 -8 0
1 1 -14 0
1 -6 0
1 5 -14 0
1 -1 0
1 -5 0
1 13 -1 0
1 1 0
1 -11 0
1 1 0
1 9 -7 0
1 -16 8 0
1 -14 -12 0
1 4 0
1 17 0
1 -1 0
