p wcnf 15 47 10
10 11 8 3 13 0
10 -6 -4 11 0
10 7 3 15 -5 0
10 -2 11 -5 -4 0
10 -5 -10 -11 0
10 -11 1 -9 0
10 14 10 -1 -9 0
10 -1 -3 -9 -13 0
10 -9 5 -8 -4 0
10 -10 4 13 0
10 -7 10 -11 -13 0
10 -14 -13 4 0
10 -13 -4 -15 -5 0
10 6 11 7 0
10 -5 -2 -3 0
10 8 -13 -3 0
10 -10 -6 2 0
10 1 -3 0
10 4 -3 -7 0
10 13 -15 0
10 13 10 1 0
10 15 5 11 0
10 10 4 -2 -13 0
10 -1 -5 6 -13 0
10 12 13 -7 0
10 -8 -7 15 3 0
10 6 -13 -2 0
10 8 4 11 0
10 -3 6 7 0
10 4 -9 0
10 14 3 4 0
10 -14 3 -8 0
10 13 12 -6 0
10 11 -15 0
10 -11 10 0
10 12 15 11 0
10 12 -4 15 -7 0
10 10 3 -13 0
1 5 0
1 6 0
1 -6 -13 0
1 -8 0
1 -15 0
1 3 0
1 -11 0
1 14 0
1 -1 0
