p wcnf 17 45 19
19 11 1 -6 0
19 5 15 14 10 0
19 -4 3 -17 -12 0
19 -2 -6 0
19 -7 12 0
19 15 -8 0
19 1 -2 3 0
19 9 -12 5 -8 0
19 8 -3 0
19 -6 -12 -1 0
19 -4 -5 2 15 0
19 4 -1 0
19 8 -2 6 0
19 4 12 5 17 0
19 -15 1 9 0
19 -10 14 -17 6 0
19 -14 -6 3 1 0
19 -11 -9 0
19 8 -4 2 11 0
19 9 3 16 0
19 12 9 0
19 13 -6 0
19 -12 -17 7 0
19 6 12 0
19 -16 17 0
19 -10 -17 -15 -16 0
19 7 4 0
1 3 0
1 6 0
1 -11 0
1 -16 -5 0
1 8 -5 0
1 -2 0
1 7 13 0
1 -3 0
1 9 0
1 -11 -9 0
1 -17 0
1 12 -1 0
1 -5 0
1 -8 0
1 7 0
1 14 0
1 7 0
1 5 0
