p wcnf 13 45 20
20 -1 8 0
20 8 -12 -10 5 0
20 8 2 10 13 0
20 11 -13 0
20 2 12 0
20 10 -1 9 0
20 1 2 4 0
20 8 -3 2 0
20 -2 4 5 -1 0
20 7 -2 -13 5 0
20 -8 2 -10 0
20 9 7 0
20 5 4 -10 2 0
20 -2 -11 0
20 -6 -3 -2 0
20 -13 11 -5 -2 0
20 -10 -11 0
20 -8 3 -6 0
20 4 10 8 0
20 -1 -9 5 0
20 -13 2 5 0
20 -3 12 -7 11 0
20 -1 -2 0
20 -6 -11 0
20 3 6 0
20 11 1 -8 10 0
1 -12 0
1 8 0
1 -11 0
1 6 0
1 -13 0
1 -9 -2 0
1 -2 0
1 -1 0
1 6 0
1 -4 -7 0
1 6 -3 0
1 -12 0
1 5 0
1 -6 0
1 -10 0
1 9 0
1 13 2 0
1 -13 0
1 -12 0
