p wcnf 16 59 20
20 16 -5 -9 8 0
20 3 13 -9 0
20 10 -8 -3 0
20 -16 -8 0
20 8 10 -16 0
20 1 4 -13 -11 0
20 -6 1 0
20 -3 -9 0
20 -9 13 6 0
20 6 -9 13 10 0
20 -3 -1 7 0
20 -7 -1 0
20 -8 -3 0
20 1 -6 0
20 11 15 8 0
20 14 -5 0
20 -16 -15 -3 10 0
20 -1 -13 0
20 16 -6 5 0
20 12 7 1 0
20 11 -5 0
20 14 9 4 11 0
20 3 14 0
20 2 9 0
20 5 -14 11 0
20 -5 -12 0
20 14 -12 -11 0
20 7 8 -6 0
20 -1 8 -14 -5 0
20 -4 3 -12 0
20 -4 -9 -8 10 0
20 -16 8 0
20 -3 14 7 0
20 -8 3 1 0
20 2 9 15 0
20 -3 -1 0
20 -11 -16 0
20 -3 12 -7 14 0
20 15 8 1 0
20 8 16 -6 -3 0
1 7 12 0
1 -14 0
1 1 4 0
1 -12 0
1 -16 7 0
1 14 11 0
1 -3 0
1 -15 -8 0
1 15 11 0
1 15 0
1 15 -5 0
1 -11 6 0
1 -8 0
1 -8 0
1 11 0
1 6 11 0
1 -12 -2 0
1 -10 0
1 -1 0
