p wcnf 15 48 13
13 -13 -8 -6 -5 0
13 -1 -15 5 0
13 -15 -10 0
13 4 3 5 0
13 -10 -14 11 -9 0
13 -8 -13 -1 -3 0
13 13 -1 -9 -11 0
13 3 -4 5 8 0
13 5 11 4 14 0
13 5 14 0
13 -2 -7 -11 10 0
13 -11 -4 -8 -12 0
13 -10 -5 0
13 2 11 6 0
13 -13 -14 0
13 3 -14 -1 -11 0
13 -8 -12 -13 0
13 8 13 -14 0
13 15 7 10 3 0
13 15 -7 11 0
13 3 8 0
13 -10 14 15 0
13 8 7 -13 -14 0
13 12 10 0
13 14 12 -11 -5 0
13 3 -14 -13 -7 0
13 -6 -12 -4 -15 0
13 5 11 2 6 0
13 -2 12 -11 -15 0
13 -7 11 -1 -15 0
13 -7 -8 -13 0
13 -3 -10 1 0
13 8 4 10 13 0
13 -14 10 13 -3 0
13 7 13 0
13 -3 14 -9 0
1 14 0
1 11 0
1 4 -14 0
1 13 -4 0
1 8 0
1 -3 9 0
1 -1 2 0
1 -5 -4 0
1 1 0
1 -8 0
1 -4 -14 0
1 -7 4 0
