p wcnf 14 53 12
12 -4 1 0
12 11 12 3 -7 0
12 5 -14 -1 0
12 -11 4 0
12 -7 1 0
12 -3 -4 6 0
12 -13 -14 -7 -9 0
12 -12 -9 0
12 12 -3 7 -2 0
12 10 -14 -2 7 0
12 9 12 0
12 -8 -14 0
12 -4 -8 0
12 7 -11 0
12 10 -7 5 13 0
12 4 12 11 13 0
12 -3 5 -4 12 0
12 -11 -2 -1 10 0
12 -4 -1 10 0
12 -3 1 -5 2 0
12 -12 -6 0
12 -6 -1 -10 -12 0
12 7 9 14 -1 0
12 8 3 -12 5 0
12 -5 -7 0
12 2 -10 -14 0
12 9 -10 4 0
12 2 8 10 3 0
12 12 -14 0
12 -12 -1 0
12 -4 -8 -14 1 0
12 6 7 -10 -11 0
12 -6 3 -10 0
12 10 3 0
12 7 -13 0
12 -9 -11 14 -2 0
12 -7 8 11 12 0
12 -12 13 2 0
12 12 -7 3 0
12 3 9 0
12 -8 10 0
12 13 4 -11 0
1 4 -6 0
1 -2 -5 0
1 -10 0
1 -6 1 0
1 6 0
1 10 0
1 14 3 0
1 -4 -10 0
1 -10 0
1 -8 0
1 1 0
