p wcnf 12 46 21
21 -12 -8 -10 -2 0
21 -12 -1 -9 -11 0
21 -7 9 -1 2 0
21 -2 -10 0
21 -6 -8 -10 0
21 8 1 0
21 11 10 6 3 0
21 -8 -6 4 2 0
21 -7 10 -12 -9 0
21 12 -7 0
21 -2 -4 0
21 -8 1 0
21 -10 8 4 11 0
21 1 -8 -2 0
21 -1 3 5 0
21 -6 11 0
21 -5 6 0
21 1 3 0
21 -2 -11 -5 0
21 3 1 -6 -5 0
21 3 -10 12 -4 0
21 10 -2 -6 0
21 10 3 -6 -12 0
21 -2 4 12 3 0
21 -12 -9 11 -4 0
21 10 7 -8 0
1 -6 -11 0
1 9 0
1 -8 0
1 3 0
1 9 0
1 -4 0
1 -4 0
1 12 7 0
1 -2 0
1 8 -10 0
1 -9 -12 0
1 12 0
1 2 0
1 10 5 0
1 3 -12 0
1 -8 0
1 -2 0
1 -1 11 0
1 4 0
1 -7 0
