p wcnf 17 40 13
13 14 -5 -6 0
13 17 -9 -4 0
13 2 -15 0
13 -12 -4 15 -17 0
13 6 11 0
13 11 -15 0
13 2 9 10 -16 0
13 -10 -4 0
13 -10 2 1 0
13 -17 5 4 0
13 17 -10 0
13 -15 4 11 0
13 -5 12 0
13 -5 -9 -2 15 0
13 -8 -14 -15 6 0
13 15 6 0
13 -2 -9 -7 0
13 -8 -13 11 7 0
13 7 16 -17 -4 0
13 17 12 0
13 2 -14 4 0
13 -15 1 4 13 0
13 16 7 0
13 -7 -8 -1 -15 0
13 -10 -16 -11 0
13 16 2 15 0
13 15 -4 11 0
13 11 9 0
1 -16 -3 0
1 -14 17 0
1 11 7 0
1 -14 0
1 17 0
1 4 0
1 -10 0
1 -12 0
1 -14 0
1 -2 -4 0
1 9 0
1 15 5 0
