p wcnf 20 49 20
20 8 6 16 0
20 6 -19 -16 0
20 3 11 5 9 0
20 -18 15 4 0
20 -4 -13 0
20 -1 8 17 0
20 -2 -12 0
20 8 -18 6 -17 0
20 -9 -2 0
20 6 -8 -16 2 0
20 -9 17 0
20 -7 10 -20 0
20 -10 -17 0
20 10 2 -1 0
20 11 -9 14 -3 0
20 18 6 -11 0
20 -6 4 5 19 0
20 -14 20 0
20 -13 5 0
20 -4 17 0
20 2 -13 0
20 -12 5 0
20 -10 15 0
20 -13 -10 -2 -18 0
20 14 12 -13 -11 0
20 -13 10 0
20 20 16 8 10 0
20 -10 17 11 0
20 -7 -14 -15 0
20 -2 -19 -12 -13 0
1 8 -5 0
1 -14 0
1 9 0
1 -19 16 0
1 -1 0
1 8 0
1 20 -13 0
1 13 11 0
1 10 0
1 7 0
1 -10 0
1 3 0
1 -4 0
1 -14 0
1 -2 0
1 1 0
1 15 0
1 -11 -5 0
1 -3 13 0
