p wcnf 16 63 19
19 10 -13 -5 0
19 5 -15 13 -8 0
19 -9 3 5 0
19 -9 -16 -13 1 0
19 -8 -6 -4 9 0
19 12 1 -5 0
19 -9 16 -8 -10 0
19 13 -9 3 -10 0
19 1 16 0
19 -11 8 0
19 14 -9 -10 -1 0
19 4 -15 0
19 -15 -5 12 -4 0
19 -15 16 -10 9 0
19 14 -13 -7 0
19 -16 11 -2 0
19 2 9 0
19 -9 4 3 -7 0
19 -1 -11 -10 -5 0
19 7 2 -13 -14 0
19 16 1 14 0
19 12 -16 0
19 -13 -11 6 0
19 9 13 14 -10 0
19 -14 -1 -10 -2 0
19 -15 -5 -6 0
19 12 -5 -16 0
19 9 -8 -1 12 0
19 9 7 -8 0
19 -12 -7 16 -10 0
19 -13 12 0
19 -13 12 -1 -5 0
19 -7 -4 0
19 -15 3 -1 7 0
19 16 6 0
19 -8 14 -1 6 0
19 -1 11 0
19 14 8 13 16 0
19 4 12 0
19 7 -11 -3 0
19 -3 16 1 -13 0
19 -15 8 -7 -1 0
19 -11 -3 0
19 16 -3 0
19 -1 -15 14 0
1 14 0
1 -14 0
1 -9 -6 0
1 14 0
1 -15 0
1 -2 0
1 -9 -7 0
1 4 0
1 -12 0
1 2 5 0
1 -9 0
1 11 7 0
1 -3 -9 0
1 -12 0
1 -2 0
1 14 0
1 12 0
1 13 0
