p wcnf 18 50 8
8 -16 -6 -18 -2 0
8 2 12 -9 -13 0
8 -4 9 -5 0
8 18 10 14 15 0
8 -13 -12 0
8 2 -17 0
8 1 16 -18 0
8 1 18 -8 0
8 14 -16 9 2 0
8 -7 4 0
8 -2 14 13 -16 0
8 5 8 0
8 12 15 -9 0
8 2 -13 18 10 0
8 -11 9 7 0
8 -6 12 -16 0
8 -4 7 -18 -6 0
8 -2 13 0
8 2 -11 7 -6 0
8 -15 -14 -9 16 0
8 11 -7 -18 -3 0
8 14 2 0
8 3 16 0
8 -4 -3 -7 0
8 18 -2 0
8 2 -1 0
8 11 -4 -16 -2 0
8 -10 -2 11 -13 0
8 14 6 -9 0
8 10 -11 0
8 -3 -14 -7 0
8 18 -14 -8 0
8 -11 15 0
8 -1 15 5 -2 0
8 -5 -10 11 0
8 -14 -8 -16 -11 0
8 -8 5 13 18 0
8 15 -2 7 -3 0
8 11 8 -4 0
8 -7 -12 10 0
8 15 -18 0
8 -5 17 0
8 18 15 14 -5 0
1 2 0
1 -10 3 0
1 6 0
1 9 0
1 -12 0
1 7 0
1 -17 0
