p wcnf 18 48 10
10 4 9 3 0
10 7 -1 16 -9 0
10 -3 -8 5 14 0
10 -11 -15 4 16 0
10 -3 11 0
10 16 6 0
10 1 -17 9 0
10 18 6 17 0
10 10 6 14 0
10 -18 -5 0
10 -2 -3 -17 0
10 -8 -2 0
10 -14 -5 -13 0
10 -8 16 11 0
10 -1 -7 6 -4 0
10 -18 5 -14 0
10 9 -15 7 0
10 4 -2 -6 0
10 -15 11 -14 0
10 1 -18 0
10 -11 1 -7 -5 0
10 9 -2 12 0
10 -10 -3 0
10 -2 16 0
10 11 -9 -18 -2 0
10 -11 4 0
10 -5 1 18 0
10 14 15 0
10 -10 6 0
10 13 16 0
10 10 9 1 0
10 9 -5 16 -13 0
10 4 -11 -2 -3 0
10 -12 -3 -11 6 0
10 -3 -14 9 1 0
10 16 -4 0
10 7 12 -3 0
10 -16 7 -6 14 0
10 5 -15 12 13 0
1 -13 0
1 3 0
1 -16 0
1 12 0
1 2 0
1 -18 0
1 -9 -6 0
1 15 0
1 -1 0
