p wcnf 16 54 17
17 -4 11 -9 -5 0
17 11 1 -16 13 0
17 4 14 2 0
17 -6 -1 0
17 11 -13 0
17 8 12 -1 -15 0
17 -16 12 -6 0
17 1 -16 -11 0
17 3 -16 0
17 -12 8 9 1 0
17 -2 14 6 -4 0
17 -3 -5 8 15 0
17 -2 -11 0
17 -7 3 16 -11 0
17 -3 -15 -12 0
17 7 -1 6 0
17 7 -15 0
17 -4 -5 -6 0
17 6 8 -2 0
17 -2 -10 0
17 -4 7 9 0
17 -12 4 5 0
17 -16 9 0
17 -7 -10 6 -13 0
17 5 8 0
17 -10 14 0
17 4 -6 -8 0
17 12 -9 2 0
17 5 -8 4 -9 0
17 15 14 0
17 -9 -15 -7 0
17 -8 15 -14 -5 0
17 -3 -5 0
17 -15 -8 3 0
17 6 13 -4 0
17 2 16 0
17 -13 -12 0
17 -14 -8 0
1 11 -6 0
1 -2 0
1 6 0
1 -12 0
1 -6 0
1 -16 0
1 14 0
1 -10 0
1 -6 7 0
1 -7 0
1 -16 -8 0
1 -16 0
1 5 0
1 -4 0
1 -10 0
1 -2 0
