p wcnf 19 45 19
19 -7 19 0
19 16 -6 -19 0
19 -15 -7 6 0
19 -14 7 0
19 -17 6 -18 5 0
19 4 6 0
19 -13 4 8 0
19 -18 6 0
19 -2 -10 11 -1 0
19 2 7 9 0
19 19 -15 8 14 0
19 -6 13 -17 -5 0
19 16 5 15 0
19 -12 -14 -13 -19 0
19 -19 -8 3 0
19 12 3 8 -6 0
19 -14 19 0
19 7 -8 -12 17 0
19 14 17 1 0
19 -2 -1 0
19 7 9 0
19 -1 9 10 0
19 -10 11 -1 0
19 -3 4 -10 0
19 12 7 1 4 0
19 14 -4 0
19 -2 7 0
1 15 -7 0
1 2 -10 0
1 -17 0
1 15 13 0
1 11 0
1 3 0
1 3 0
1 -8 -3 0
1 11 -13 0
1 -9 0
1 8 0
1 15 0
1 -16 17 0
1 -7 0
1 -2 0
1 -7 -12 0
1 -14 18 0
1 -14 -7 0
