p wcnf 16 46 17
17 4 -6 -1 -13 0
17 1 10 -7 0
17 8 9 0
17 8 -16 -4 0
17 7 6 16 -4 0
17 16 -2 4 -11 0
17 5 12 -8 0
17 10 -12 -16 -13 0
17 -4 12 -9 11 0
17 -2 -13 0
17 8 -9 4 0
17 2 9 0
17 6 11 -1 0
17 15 13 -10 1 0
17 -13 -14 0
17 -7 14 9 0
17 -6 -11 0
17 -16 -13 -7 11 0
17 -6 1 -16 13 0
17 -10 5 -1 13 0
17 4 5 -7 0
17 4 -5 6 8 0
17 13 4 2 0
17 15 4 -14 7 0
17 12 -11 16 -3 0
17 -8 -16 0
17 13 -2 -14 4 0
17 3 9 -6 0
17 -8 -12 -10 -1 0
17 -13 -3 -8 -10 0
1 4 0
1 -4 0
1 6 4 0
1 3 0
1 -5 0
1 -11 0
1 1 0
1 7 0
1 15 0
1 -6 0
1 8 0
1 5 -6 0
1 1 0
1 -9 0
1 10 -9 0
1 7 -3 0
