p wcnf 16 43 19
19 15 7 -1 6 0
19 12 9 -2 0
19 -12 -4 -7 9 0
19 3 -5 -11 9 0
19 6 3 0
19 -1 -6 0
19 -9 -5 -12 0
19 -14 6 1 0
19 -7 2 -8 0
19 -6 10 1 0
19 -1 -16 -8 0
19 -16 -13 2 14 0
19 13 -11 14 0
19 15 10 -5 0
19 6 1 -9 0
19 14 7 2 0
19 13 -7 -2 14 0
19 -2 16 7 0
19 -10 4 -5 0
19 -14 -10 -1 0
19 -16 -10 -4 -12 0
19 14 10 0
19 -10 -15 -13 14 0
19 6 -15 0
19 -16 -1 11 0
1 16 5 0
1 2 6 0
1 -7 0
1 13 0
1 -8 0
1 3 9 0
1 7 13 0
1 -14 0
1 -11 0
1 -1 8 0
1 -7 0
1 -16 0
1 11 0
1 -6 0
1 -5 10 0
1 -4 0
1 1 0
1 13 0
