p wcnf 17 45 21
21 14 -1 0
21 9 -13 -3 0
21 -16 7 -9 0
21 8 -2 12 0
21 -3 -5 -15 -13 0
21 1 -3 9 10 0
21 11 3 -16 0
21 16 5 -10 4 0
21 -4 6 0
21 10 -15 0
21 3 -10 -11 -1 0
21 -16 14 0
21 -2 4 13 0
21 16 14 -10 -8 0
21 2 10 0
21 3 -2 13 -17 0
21 13 -4 0
21 10 2 12 0
21 13 -10 -16 0
21 -8 16 0
21 -2 -15 0
21 -17 3 0
21 -10 -12 -2 0
21 -2 -11 0
21 -6 -13 0
1 -13 0
1 8 0
1 -7 0
1 16 0
1 4 0
1 -4 0
1 -6 0
1 -1 0
1 -1 0
1 17 0
1 10 0
1 9 -1 0
1 11 0
1 -8 -5 0
1 -8 0
1 11 0
1 9 0
1 -8 -12 0
1 8 -17 0
1 -9 0
