p wcnf 11 45 18
18 -3 2 -1 5 0
18 3 -4 0
18 9 -11 10 0
18 11 7 10 1 0
18 5 -8 -4 1 0
18 -6 8 0
18 9 8 6 -7 0
18 8 -6 1 2 0
18 4 8 -1 0
18 3 2 4 -10 0
18 5 -3 0
18 5 3 -10 7 0
18 2 3 -8 -7 0
18 -4 -7 -6 3 0
18 10 6 9 0
18 8 -6 -1 0
18 -10 5 -9 0
18 -1 -4 -7 -8 0
18 -2 4 0
18 -4 6 -3 9 0
18 -3 2 6 -4 0
18 3 -9 5 7 0
18 5 8 -4 0
18 -3 11 7 0
18 -9 5 -1 7 0
18 -10 -6 3 0
18 -10 -5 0
18 -3 11 0
1 -10 0
1 2 0
1 -2 0
1 6 1 0
1 6 0
1 -7 -8 0
1 -10 -7 0
1 2 0
1 -11 0
1 2 0
1 -3 -4 0
1 4 -8 0
1 4 0
1 8 0
1 -11 0
1 -3 7 0
1 -3 0
