p wcnf 18 60 11
11 -12 -13 6 -8 0
11 13 3 -12 5 0
11 9 8 -2 -6 0
11 -2 11 0
11 -14 12 16 0
11 10 7 0
11 5 -17 1 7 0
11 -4 -12 15 -16 0
11 -13 5 0
11 -5 -11 -4 -2 0
11 -17 -6 5 0
11 7 12 0
11 15 -5 -17 0
11 -4 13 -16 -5 0
11 10 2 -16 15 0
11 -16 11 -12 0
11 -14 5 12 0
11 8 9 17 0
11 -8 18 12 3 0
11 -1 8 0
11 -10 12 -2 0
11 16 -1 -14 13 0
11 12 -2 3 0
11 12 5 0
11 12 -8 0
11 -6 1 11 0
11 5 17 -16 0
11 5 -15 0
11 7 -10 5 16 0
11 9 -7 4 0
11 -17 11 -10 7 0
11 -6 17 -9 7 0
11 -5 6 17 0
11 -14 -15 -6 4 0
11 -10 -11 12 -17 0
11 -4 5 9 0
11 -15 -10 -17 7 0
11 -2 -7 5 0
11 7 1 -15 -17 0
11 14 -1 -6 0
11 3 -9 0
11 -5 12 -18 0
11 -17 1 2 0
11 -15 -3 0
11 -15 17 0
11 -11 -10 -8 0
11 -6 14 -5 0
11 -12 16 18 0
11 -10 12 0
11 12 -16 10 18 0
1 -6 0
1 -18 0
1 5 0
1 -17 0
1 11 0
1 -17 2 0
1 8 0
1 10 0
1 8 0
1 10 0
