p wcnf 19 55 18
18 -9 -3 -10 0
18 4 15 8 7 0
18 -19 2 0
18 1 19 -10 0
18 -1 -18 15 0
18 15 18 12 -14 0
18 4 -10 -15 -17 0
18 13 5 12 0
18 9 5 17 0
18 -12 -3 -9 -14 0
18 -11 9 0
18 7 8 0
18 13 -7 0
18 2 12 -13 14 0
18 4 7 19 3 0
18 5 13 12 0
18 6 -8 7 13 0
18 1 15 0
18 -17 9 8 -19 0
18 1 4 0
18 -4 -11 -2 10 0
18 -5 -10 19 0
18 6 -13 -3 -4 0
18 10 -2 0
18 3 10 -11 0
18 -17 -11 0
18 -13 -8 0
18 -12 -9 -2 0
18 2 14 -17 -4 0
18 14 10 -17 0
18 18 -6 0
18 10 5 -2 0
18 14 11 0
18 -12 -13 -16 0
18 -17 -14 -3 0
18 -2 -19 4 9 0
18 19 6 10 4 0
18 12 2 19 0
1 -16 -17 0
1 -14 -2 0
1 13 0
1 -11 -4 0
1 -17 0
1 -14 0
1 17 0
1 -17 0
1 3 12 0
1 1 18 0
1 -3 0
1 -7 0
1 -6 -1 0
1 5 0
1 1 0
1 -11 9 0
1 -8 0
