p wcnf 16 44 14
14 3 10 -12 2 0
14 -3 -12 0
14 -5 -8 2 0
14 13 -1 0
14 5 -7 8 0
14 -1 -16 -12 0
14 -4 8 -16 0
14 9 13 6 0
14 14 15 10 0
14 -9 10 4 11 0
14 6 -9 16 15 0
14 -2 -14 0
14 15 -14 0
14 -11 12 -1 0
14 1 -12 -6 0
14 13 12 -1 -10 0
14 9 -15 0
14 3 11 7 0
14 4 10 -16 -7 0
14 15 7 16 -14 0
14 -12 -9 -14 0
14 -6 -10 2 -16 0
14 -1 -14 0
14 6 11 4 10 0
14 10 -12 0
14 -13 -14 6 -7 0
14 -3 11 14 5 0
14 6 -13 -1 7 0
14 11 -15 5 -2 0
14 11 2 13 0
14 7 8 -10 -6 0
1 11 -15 0
1 4 -6 0
1 -1 0
1 5 7 0
1 2 11 0
1 12 0
1 4 -7 0
1 7 0
1 1 -7 0
1 8 16 0
1 6 -2 0
1 -5 0
1 8 0
