p wcnf 14 41 10
10 2 -9 0
10 -2 -11 6 -10 0
10 -9 -3 -14 0
10 -5 -4 0
10 -2 -7 8 0
10 7 3 10 0
10 14 -7 9 0
10 4 -11 0
10 -5 7 0
10 -8 -14 -2 0
10 7 -14 -6 0
10 10 9 0
10 -14 -12 0
10 -11 3 0
10 10 -13 -7 12 0
10 -4 8 -10 0
10 -3 5 12 11 0
10 -7 8 13 12 0
10 3 -8 0
10 -12 -2 0
10 -13 -14 -5 0
10 9 -10 12 5 0
10 -8 7 1 13 0
10 -8 9 -1 0
10 7 -2 -12 0
10 8 -12 5 6 0
10 -1 11 -13 -6 0
10 -11 4 6 10 0
10 -8 3 -1 0
10 -1 -14 0
10 -9 -7 0
10 1 -10 0
1 8 0
1 -14 -8 0
1 1 -7 0
1 7 0
1 -14 0
1 -3 -9 0
1 1 0
1 -8 0
1 -1 0
