p wcnf 19 40 10
10 -9 13 18 -1 0
10 11 18 8 0
10 3 11 13 0
10 12 -7 0
10 10 8 4 -11 0
10 10 9 1 8 0
10 10 8 0
10 16 15 17 -14 0
10 -17 -14 0
10 -9 15 2 -14 0
10 -17 19 0
10 -11 -14 -9 -19 0
10 -7 -17 15 18 0
10 13 -14 -4 0
10 12 -2 0
10 -18 13 -14 0
10 9 -16 -7 17 0
10 9 2 -1 -15 0
10 -2 -10 0
10 -17 16 15 0
10 12 6 11 0
10 -16 12 0
10 -19 -5 0
10 -5 6 -13 0
10 -13 -15 -19 0
10 7 -2 -9 -19 0
10 16 14 0
10 16 6 0
10 -17 16 -4 0
10 -5 -14 1 0
10 13 -7 0
1 -8 0
1 -3 0
1 -13 6 0
1 -13 0
1 16 0
1 14 2 0
1 -10 -11 0
1 -1 0
1 -5 0
