p wcnf 16 48 20
20 -14 3 0
20 13 5 0
20 5 12 0
20 -12 -7 -2 11 0
20 -12 10 -5 15 0
20 11 16 6 7 0
20 -10 13 0
20 11 12 13 0
20 -11 5 3 15 0
20 -6 -11 3 0
20 1 2 0
20 -10 9 0
20 13 5 0
20 12 -11 -9 0
20 -3 16 10 0
20 -2 -16 -3 -11 0
20 -8 7 0
20 6 -10 0
20 -16 -7 11 0
20 11 -7 5 -14 0
20 11 -12 0
20 -9 -2 0
20 -14 5 13 0
20 -4 -10 -12 -11 0
20 2 -12 -9 -4 0
20 -13 2 0
20 2 1 12 0
20 -5 9 -2 -15 0
20 -13 6 -14 0
1 -9 0
1 -4 0
1 -12 0
1 2 0
1 -1 9 0
1 2 3 0
1 -13 12 0
1 2 0
1 -11 -1 0
1 3 -7 0
1 8 0
1 -10 0
1 -3 0
1 -2 13 0
1 -3 -5 0
1 -1 11 0
1 10 -1 0
1 -3 -6 0
1 -13 0
