p wcnf 20 71 16
16 -6 8 0
16 -4 -16 -18 0
16 18 -9 20 -12 0
16 14 -18 0
16 3 -17 18 0
16 14 5 0
16 -11 -15 0
16 11 9 -4 18 0
16 -13 7 15 -10 0
16 -20 12 0
16 -9 15 -3 0
16 17 -1 -15 0
16 18 -19 -1 -10 0
16 -8 -4 -10 -18 0
16 -2 -13 -6 0
16 -19 15 0
16 16 -8 7 -20 0
16 -14 -16 13 -4 0
16 12 9 0
16 -8 14 0
16 -8 1 -18 0
16 -9 -8 -1 -15 0
16 4 -3 0
16 14 -1 15 20 0
16 -10 -18 0
16 1 -5 0
16 6 18 -14 0
16 -1 17 0
16 12 -3 -5 0
16 -15 18 19 0
16 9 -2 0
16 -14 -12 1 8 0
16 8 11 2 0
16 -19 15 0
16 -15 -11 8 0
16 13 -6 19 0
16 -4 20 14 0
16 1 12 0
16 15 -19 -17 0
16 -1 19 -2 0
16 -7 12 5 -15 0
16 -14 -20 10 -6 0
16 -7 18 0
16 -4 -5 1 16 0
16 -1 -15 -19 3 0
16 -17 6 0
16 -9 -18 5 0
16 16 5 0
16 -14 5 -3 0
16 4 -7 -3 -16 0
16 19 -7 0
16 17 -1 5 14 0
16 -13 4 0
16 -13 -10 1 16 0
16 17 18 -11 -6 0
16 8 7 0
1 -1 -11 0
1 -12 17 0
1 -7 0
1 19 -1 0
1 -16 0
1 3 0
1 -18 0
1 18 -15 0
1 -5 18 0
1 9 7 0
1 -5 0
1 -18 0
1 -9 15 0
1 15 -20 0
1 -20 0
