p wcnf 19 44 12
12 8 7 0
12 -11 -3 0
12 12 -15 -11 -19 0
12 5 7 0
12 16 4 0
12 -15 6 0
12 -11 -8 0
12 8 -2 3 9 0
12 1 -15 0
12 3 -15 0
12 -2 -5 -11 0
12 -7 13 0
12 12 13 11 -17 0
12 -1 19 0
12 2 -12 -1 -13 0
12 18 -9 17 0
12 16 -6 8 -7 0
12 15 -4 18 10 0
12 5 -19 14 12 0
12 -6 -13 0
12 -17 9 0
12 19 -17 4 0
12 19 17 -6 0
12 5 8 -10 7 0
12 8 9 -4 0
12 1 -14 -13 0
12 -16 7 5 0
12 16 17 -12 0
12 5 12 3 8 0
12 17 9 0
12 -5 -17 -11 0
12 -5 6 0
12 -18 8 -19 0
1 -6 -2 0
1 -4 0
1 11 0
1 17 0
1 -13 18 0
1 -10 0
1 -1 0
1 -12 0
1 -1 0
1 -12 0
1 3 0
