p wcnf 18 61 18
18 5 11 2 6 0
18 12 4 -7 0
18 -17 1 14 0
18 -14 -12 8 3 0
18 -4 -13 0
18 15 5 0
18 7 -17 0
18 -1 9 0
18 -10 7 0
18 2 -6 0
18 -10 -7 13 -14 0
18 -16 -9 0
18 -11 16 18 -13 0
18 12 -18 0
18 10 -3 -17 0
18 6 17 5 0
18 -5 -6 0
18 -1 4 -14 11 0
18 10 13 4 0
18 17 7 -14 0
18 2 -7 0
18 -12 13 0
18 -3 -12 -4 0
18 18 12 2 -7 0
18 -16 -7 1 15 0
18 -14 11 0
18 -2 10 -1 0
18 -6 -9 14 0
18 -18 4 -2 0
18 -15 -5 -6 0
18 2 -13 0
18 13 11 0
18 17 -8 0
18 4 8 11 -17 0
18 6 2 -14 0
18 13 -14 -18 0
18 -14 9 12 -4 0
18 17 -6 -10 0
18 2 -16 0
18 8 -5 -6 -4 0
18 3 -13 0
18 -11 10 0
18 10 5 0
18 -12 -14 0
1 -4 0
1 -6 0
1 15 0
1 6 0
1 5 0
1 13 0
1 17 0
1 -6 0
1 4 0
1 -17 0
1 -2 0
1 17 0
1 6 0
1 -9 0
1 4 -5 0
1 -4 0
1 -8 0
