p wcnf 14 47 15
15 6 -5 2 -12 0
15 7 10 0
15 -1 7 9 -6 0
15 -6 4 -14 0
15 8 -5 -11 -6 0
15 -5 -13 -12 0
15 -10 7 12 0
15 13 9 4 0
15 -5 9 4 7 0
15 -6 -14 2 5 0
15 -3 -1 -10 0
15 9 14 -1 0
15 12 13 0
15 11 8 14 0
15 5 4 0
15 4 -13 0
15 -8 -10 -1 6 0
15 -1 -14 -6 -3 0
15 -2 12 6 13 0
15 7 13 0
15 11 -14 -6 0
15 -4 -14 0
15 -9 7 -8 2 0
15 14 5 10 0
15 2 1 -10 0
15 5 -7 14 0
15 -4 6 10 -3 0
15 11 7 0
15 -10 -2 -3 -14 0
15 -8 -1 -13 -5 0
15 11 -9 -6 0
15 4 13 14 7 0
15 -10 -11 -1 0
1 -9 2 0
1 12 0
1 6 0
1 -1 -7 0
1 -10 0
1 7 0
1 7 0
1 3 -4 0
1 13 0
1 -9 13 0
1 1 0
1 -5 -10 0
1 13 0
1 6 0
