p wcnf 19 61 20
20 -2 16 -18 -3 0
20 5 -6 0
20 -2 8 0
20 10 -19 -2 0
20 -19 6 -7 0
20 11 13 -5 10 0
20 10 16 0
20 -15 3 -2 14 0
20 -8 17 0
20 18 -9 6 0
20 -4 5 17 0
20 5 9 -3 0
20 -19 16 2 0
20 1 -15 -6 0
20 19 17 -3 0
20 5 8 0
20 8 -7 10 0
20 -1 18 -8 13 0
20 6 -18 -7 0
20 6 -19 0
20 15 -4 -16 0
20 18 8 11 3 0
20 18 1 -17 11 0
20 19 14 5 -16 0
20 19 -7 10 0
20 -15 19 -7 0
20 -5 -1 0
20 -1 7 -4 0
20 5 -8 0
20 15 12 0
20 -5 -8 13 0
20 12 -7 -10 1 0
20 -14 -18 -1 0
20 17 -13 12 0
20 -9 3 2 0
20 1 -19 -16 -3 0
20 13 -5 0
20 15 -8 -10 -14 0
20 16 12 -2 0
20 18 10 0
20 12 -9 0
20 16 1 -10 -5 0
1 7 0
1 19 -15 0
1 1 -16 0
1 1 0
1 -5 -17 0
1 1 0
1 14 0
1 -11 0
1 4 12 0
1 12 0
1 -4 0
1 -17 0
1 8 0
1 11 0
1 -17 0
1 -10 0
1 -12 1 0
1 7 -3 0
1 -1 0
