p wcnf 19 40 12
12 -16 5 0
12 -19 17 -18 -11 0
12 -18 10 0
12 7 18 10 0
12 -1 9 -5 0
12 14 -19 -2 16 0
12 1 13 14 -4 0
12 2 -11 4 17 0
12 -3 -11 8 -19 0
12 -9 -7 4 0
12 -8 -10 -7 0
12 -6 -4 0
12 -7 -13 0
12 -15 16 0
12 3 -12 5 0
12 -18 -15 0
12 5 12 0
12 -14 -16 0
12 -13 -15 18 19 0
12 -9 -12 -17 0
12 -8 -7 -12 0
12 8 16 0
12 2 -6 4 0
12 11 -7 0
12 -12 4 18 -5 0
12 11 -9 14 -7 0
12 7 -6 12 0
12 -6 10 0
12 -4 -3 0
1 19 0
1 -1 0
1 4 -19 0
1 -9 0
1 -1 -8 0
1 -11 0
1 -15 0
1 14 0
1 -10 -6 0
1 9 16 0
1 3 0
