p wcnf 16 53 20
20 6 9 -4 0
20 4 -9 0
20 1 11 12 0
20 -3 -15 6 0
20 15 -10 -13 14 0
20 6 -7 -15 0
20 -16 6 8 9 0
20 -6 2 8 0
20 -2 14 0
20 2 10 -6 -7 0
20 15 16 0
20 1 -14 6 -2 0
20 -11 10 0
20 4 14 -15 3 0
20 14 13 0
20 9 -8 -2 14 0
20 9 -11 -5 0
20 -15 13 5 -3 0
20 -6 -12 4 8 0
20 4 16 0
20 -11 -16 4 0
20 -9 -13 -6 -3 0
20 -5 11 0
20 -9 -14 15 4 0
20 7 -15 -1 14 0
20 -10 -14 8 6 0
20 11 5 -14 12 0
20 14 11 13 -8 0
20 10 -15 -14 0
20 12 -11 0
20 -10 -13 6 -9 0
20 6 5 8 0
20 -9 6 11 0
20 -14 11 -12 0
1 -4 0
1 -11 -15 0
1 -1 -13 0
1 5 4 0
1 13 0
1 -8 0
1 10 0
1 -7 0
1 10 0
1 10 0
1 7 -16 0
1 -5 0
1 -1 0
1 1 13 0
1 -9 0
1 3 0
1 5 0
1 7 -16 0
1 -3 -4 0
