p wcnf 15 51 21
21 10 5 11 0
21 6 3 0
21 15 10 -5 8 0
21 -6 4 0
21 4 8 0
21 6 8 3 0
21 15 7 0
21 13 -15 3 -7 0
21 6 13 10 2 0
21 -13 -2 -5 0
21 7 1 15 0
21 -1 -3 4 0
21 -6 9 0
21 8 6 -7 0
21 -8 -5 3 0
21 -11 -9 0
21 2 -11 6 0
21 11 -10 -5 -6 0
21 -14 -2 0
21 -12 -6 7 -5 0
21 -10 -9 0
21 -10 -3 -12 0
21 -9 11 -3 -8 0
21 -10 4 12 0
21 1 -8 -13 0
21 10 8 6 9 0
21 -10 13 -7 -4 0
21 -14 -7 6 0
21 15 -9 -5 -12 0
21 5 -15 0
21 -1 8 -10 0
1 6 0
1 4 -1 0
1 3 0
1 3 0
1 13 0
1 10 0
1 -4 -12 0
1 15 -1 0
1 -10 0
1 15 -9 0
1 13 -15 0
1 1 0
1 4 0
1 10 0
1 6 8 0
1 12 0
1 7 0
1 11 0
1 -15 0
1 4 0
