p wcnf 14 47 12
12 -14 10 4 8 0
12 -12 -4 3 -1 0
12 -12 -11 9 0
12 7 -8 -10 0
12 -2 11 -13 -12 0
12 8 -10 -11 0
12 -10 -1 13 0
12 -11 -7 -10 0
12 3 12 10 0
12 13 -10 -2 -9 0
12 13 -9 -2 0
12 9 -4 13 6 0
12 -3 8 -10 0
12 -13 -12 1 -2 0
12 9 14 0
12 7 -12 0
12 13 -8 0
12 7 -8 6 0
12 -9 -8 0
12 1 13 0
12 -8 5 10 -3 0
12 5 8 9 -2 0
12 10 -3 -9 0
12 -14 -10 0
12 -4 10 0
12 -14 -5 13 0
12 13 11 -10 0
12 -3 -10 -2 0
12 12 1 2 0
12 -11 10 -8 0
12 -10 4 -6 3 0
12 -7 -8 14 -12 0
12 -8 14 6 -3 0
12 4 7 -5 -1 0
12 -11 -1 -4 0
12 -4 -6 -14 0
1 -10 0
1 -5 0
1 -14 0
1 4 0
1 4 0
1 12 -9 0
1 2 0
1 -13 7 0
1 -3 0
1 12 0
1 9 0
