p wcnf 13 45 19
19 -4 12 -10 0
19 2 5 4 8 0
19 -9 7 -6 0
19 -2 -7 0
19 4 13 10 5 0
19 10 -7 6 0
19 3 -8 13 0
19 -3 2 -4 1 0
19 -3 -13 -5 0
19 13 5 12 7 0
19 -8 13 0
19 2 1 8 0
19 12 -9 -10 0
19 5 -13 -3 0
19 -8 2 0
19 -10 6 1 11 0
19 -5 9 11 0
19 -3 6 0
19 -3 -13 0
19 -4 -9 0
19 -5 1 6 0
19 -11 -10 -3 1 0
19 1 -12 5 0
19 -7 -5 -2 0
19 -2 3 4 0
19 1 8 13 -12 0
19 8 6 7 -13 0
1 11 13 0
1 -2 0
1 -1 0
1 3 -11 0
1 11 0
1 5 0
1 -6 -3 0
1 2 0
1 -10 0
1 -8 0
1 8 0
1 -13 11 0
1 -6 0
1 5 0
1 -12 0
1 -8 0
1 -1 0
1 -8 -12 0
