p wcnf 17 43 13
13 -15 14 -4 2 0
13 3 8 9 -10 0
13 -8 -9 -14 5 0
13 2 -6 -10 0
13 3 14 -9 0
13 7 1 -16 4 0
13 -11 3 -8 0
13 5 15 -11 4 0
13 3 2 -14 -15 0
13 2 -5 9 14 0
13 -11 -4 0
13 -14 -13 -3 -4 0
13 -6 5 0
13 -8 1 4 -16 0
13 -2 6 0
13 5 8 0
13 -10 3 5 -16 0
13 -4 -2 0
13 3 12 -8 0
13 16 -15 0
13 -3 -1 -2 0
13 -1 -17 9 4 0
13 -16 8 0
13 15 17 10 0
13 3 -10 -16 1 0
13 16 -1 5 0
13 14 13 3 0
13 -16 8 5 -1 0
13 -8 12 17 16 0
13 -6 -4 15 0
13 11 -13 12 -2 0
1 6 0
1 -2 0
1 -9 0
1 -9 0
1 10 0
1 5 0
1 -13 15 0
1 -12 1 0
1 -3 15 0
1 7 0
1 -9 0
1 5 0
