p wcnf 18 59 15
15 10 4 -1 0
15 -13 -6 -11 0
15 18 -5 -1 0
15 10 11 -17 -6 0
15 3 5 0
15 -11 -13 -9 0
15 17 15 -10 0
15 -11 -8 9 0
15 -8 -12 0
15 -18 1 16 -10 0
15 -6 -10 5 -11 0
15 10 12 -16 0
15 -12 -11 -1 0
15 -10 -8 0
15 -16 -1 -13 9 0
15 -3 16 -4 0
15 -5 11 -8 0
15 4 6 0
15 -6 12 9 0
15 1 -17 14 0
15 -13 12 0
15 3 -8 0
15 -18 15 -14 -3 0
15 7 -15 0
15 -15 -10 0
15 6 7 -4 0
15 -14 -13 7 0
15 -10 -2 0
15 -5 -17 18 0
15 6 8 -14 -9 0
15 -16 -13 3 0
15 -1 7 -2 0
15 -4 -9 0
15 13 11 4 -9 0
15 4 -17 -9 0
15 15 -18 16 10 0
15 5 2 -7 -4 0
15 -15 14 11 -4 0
15 10 16 -9 0
15 -2 15 -10 0
15 2 -3 0
15 8 5 11 -12 0
15 4 -6 0
15 16 11 0
15 7 -4 0
1 -5 -14 0
1 7 0
1 9 0
1 18 0
1 6 0
1 18 0
1 14 0
1 18 0
1 18 0
1 5 0
1 18 0
1 -7 0
1 -4 13 0
1 4 10 0
