p wcnf 16 50 11
11 -13 -4 0
11 -8 3 0
11 7 10 -6 0
11 6 -1 0
11 -12 -11 0
11 -10 -4 5 14 0
11 -11 9 5 0
11 -13 -2 0
11 6 2 0
11 4 -9 -6 11 0
11 10 -4 11 0
11 -1 -16 -11 -9 0
11 4 15 14 -12 0
11 1 5 0
11 -13 -12 -11 0
11 1 6 -12 -13 0
11 -8 -5 9 -15 0
11 -8 -13 5 2 0
11 -3 -13 0
11 14 -12 11 -7 0
11 -7 -12 10 0
11 -16 13 0
11 -3 -13 0
11 10 -11 8 -6 0
11 -2 4 0
11 -9 15 0
11 -10 14 0
11 12 -4 0
11 2 14 -10 0
11 -10 3 -12 -7 0
11 -10 -12 0
11 5 11 -10 0
11 7 9 0
11 1 7 0
11 -16 7 0
11 -15 13 0
11 -8 5 0
11 -7 15 0
11 11 16 12 0
11 -15 -5 -7 -14 0
1 13 -12 0
1 -9 0
1 -12 0
1 -2 0
1 14 0
1 15 0
1 5 2 0
1 -6 4 0
1 -4 12 0
1 2 0
