p wcnf 19 61 10
10 1 -18 0
10 -17 16 -18 0
10 5 12 -1 -16 0
10 2 9 0
10 10 -3 16 2 0
10 -17 -3 8 4 0
10 10 11 13 17 0
10 -16 9 18 -7 0
10 10 -16 2 0
10 -9 -10 14 -13 0
10 15 -14 0
10 -1 -18 0
10 -5 -12 0
10 -12 14 0
10 2 19 0
10 -5 -11 -14 1 0
10 11 1 -9 0
10 -19 11 -5 8 0
10 2 17 1 -19 0
10 15 -8 -19 0
10 12 -14 17 18 0
10 15 11 0
10 6 -1 -4 -14 0
10 -15 17 -16 9 0
10 -2 -13 0
10 -8 -5 -10 -12 0
10 5 11 14 17 0
10 18 -5 0
10 19 -5 0
10 -17 8 -9 0
10 -15 3 18 4 0
10 -15 -5 16 8 0
10 -17 -9 -15 -6 0
10 16 -2 14 0
10 -1 3 7 9 0
10 8 6 -10 0
10 13 2 0
10 16 -8 0
10 1 17 0
10 1 -5 -8 0
10 -12 9 -17 -7 0
10 -18 9 0
10 5 12 2 16 0
10 3 10 -19 0
10 6 -10 0
10 12 15 0
10 -19 -2 8 0
10 -8 4 1 -7 0
10 17 16 0
10 7 12 0
10 -2 -8 9 0
10 1 -13 17 -6 0
1 -8 0
1 -16 3 0
1 -10 -7 0
1 -3 0
1 -10 0
1 -10 0
1 -4 0
1 10 -14 0
1 -5 0
