p wcnf 14 43 18
18 -4 -11 12 -3 0
18 7 -6 0
18 11 -12 8 0
18 14 -9 -11 4 0
18 -10 -1 5 -9 0
18 -1 14 -7 8 0
18 -12 5 6 -4 0
18 14 -10 0
18 -4 -8 -12 0
18 -9 2 12 0
18 5 -8 11 1 0
18 14 -3 0
18 5 -4 0
18 -3 14 0
18 9 5 14 0
18 3 12 -11 9 0
18 3 13 -10 0
18 -5 -14 -10 -1 0
18 5 13 -2 -3 0
18 13 2 5 -1 0
18 7 1 9 -14 0
18 11 8 2 -14 0
18 -12 13 0
18 -3 -13 4 -2 0
18 -7 -5 0
18 7 -10 0
1 -7 -10 0
1 12 7 0
1 10 -9 0
1 -3 -13 0
1 -14 0
1 -11 -10 0
1 -6 0
1 -9 0
1 -11 2 0
1 -5 -13 0
1 11 0
1 -8 0
1 -7 0
1 -6 12 0
1 1 0
1 -9 0
1 10 0
