p wcnf 16 58 17
17 -10 3 -14 -13 0
17 -15 -13 4 0
17 10 -8 -2 -7 0
17 -14 11 0
17 2 1 -16 0
17 6 5 0
17 12 -16 5 0
17 -14 4 0
17 8 -4 -1 -12 0
17 12 14 8 -11 0
17 5 -9 15 -13 0
17 11 8 10 0
17 6 3 -13 8 0
17 -15 -9 -12 0
17 -7 -2 11 -5 0
17 -7 -2 0
17 11 -12 4 0
17 16 7 -12 0
17 4 16 0
17 7 4 -9 13 0
17 11 -9 0
17 13 3 0
17 4 3 -9 0
17 13 16 9 -6 0
17 7 -1 11 0
17 -8 -14 0
17 4 2 5 1 0
17 -5 -14 -16 8 0
17 -2 7 -10 0
17 8 11 0
17 14 -10 -15 16 0
17 5 -13 -15 0
17 -6 -12 0
17 1 -12 -13 -2 0
17 -1 16 0
17 -15 -10 0
17 -5 7 -12 0
17 3 -4 2 0
17 -9 16 0
17 10 2 0
17 -13 3 0
17 -11 12 -2 0
1 1 0
1 7 0
1 13 16 0
1 10 -13 0
1 -10 0
1 2 0
1 1 0
1 -6 0
1 2 11 0
1 -14 -5 0
1 -11 0
1 -5 3 0
1 -3 0
1 -4 -13 0
1 -6 3 0
1 8 0
