p wcnf 13 47 14
14 6 -11 5 -9 0
14 1 11 7 -4 0
14 -9 4 0
14 4 1 9 0
14 2 1 3 0
14 9 5 0
14 5 -13 1 -7 0
14 -6 -4 8 -1 0
14 8 -13 12 0
14 10 7 1 0
14 13 -4 -3 -7 0
14 -7 -12 -2 11 0
14 13 -12 -11 2 0
14 3 2 0
14 9 -7 0
14 1 -5 2 6 0
14 12 4 8 0
14 4 -13 11 1 0
14 -12 2 0
14 9 11 0
14 -6 9 7 -12 0
14 -9 -4 -1 0
14 -10 13 0
14 12 13 -10 0
14 -10 1 3 0
14 -3 -6 0
14 1 12 0
14 -1 5 0
14 2 -6 0
14 -11 9 -4 0
14 -2 -10 -12 -3 0
14 -13 1 0
14 4 -10 11 0
14 4 -12 10 0
1 -11 0
1 -3 -2 0
1 -6 0
1 -10 0
1 4 0
1 -10 0
1 -2 0
1 4 0
1 -9 0
1 5 0
1 10 0
1 -5 0
1 2 0
