p wcnf 18 53 16
16 15 -3 0
16 -6 -12 -13 1 0
16 -18 3 0
16 8 16 -1 0
16 12 15 17 18 0
16 -7 18 9 15 0
16 -9 1 -8 -10 0
16 -17 2 9 0
16 -13 -10 5 -15 0
16 15 -17 0
16 15 3 0
16 1 -18 0
16 12 -8 11 1 0
16 -5 2 0
16 -3 -14 0
16 -7 -13 -2 10 0
16 -18 -14 0
16 -13 -1 -14 -2 0
16 -7 4 -6 -1 0
16 2 -14 18 -13 0
16 16 -10 -9 0
16 17 -7 -3 0
16 8 16 0
16 17 -10 -12 -3 0
16 17 -11 -6 0
16 6 -18 15 1 0
16 -13 -9 17 0
16 -2 11 0
16 -10 12 0
16 -4 8 3 0
16 7 6 -5 0
16 11 -2 7 -15 0
16 -6 -7 13 0
16 -16 7 0
16 7 4 0
16 -15 -1 0
16 18 -8 -13 12 0
16 18 11 8 0
1 -4 18 0
1 15 0
1 -5 0
1 -7 0
1 -12 0
1 -10 0
1 -18 0
1 -2 10 0
1 -5 0
1 12 -16 0
1 -10 0
1 15 0
1 10 0
1 15 3 0
1 9 0
