p wcnf 14 47 14
14 10 -13 0
14 -4 8 0
14 -1 5 0
14 9 -5 -12 -8 0
14 -13 3 0
14 -6 8 -7 0
14 -10 -13 1 0
14 9 12 1 0
14 -9 -8 -14 -2 0
14 9 -7 10 2 0
14 7 -1 0
14 10 -1 6 -13 0
14 7 8 0
14 -11 10 0
14 8 11 0
14 13 -8 -6 4 0
14 -12 -4 5 -10 0
14 -11 -9 -6 5 0
14 -5 7 0
14 9 12 -10 0
14 13 -7 0
14 -3 -13 -14 11 0
14 5 7 -3 10 0
14 -4 -8 -9 0
14 -7 -4 -2 0
14 -9 8 -11 0
14 12 9 -5 -1 0
14 -7 2 0
14 2 12 -6 0
14 13 -12 0
14 -14 -13 -2 0
14 13 -6 2 0
14 4 6 -2 0
14 6 -4 8 5 0
1 -3 0
1 5 -10 0
1 11 0
1 -14 0
1 -10 0
1 -5 0
1 8 0
1 -6 0
1 -8 -12 0
1 3 0
1 -9 0
1 10 0
1 4 0
