p wcnf 20 44 21
21 -14 -17 3 13 0
21 5 -9 0
21 -6 -8 0
21 7 -20 1 6 0
21 -13 5 20 -6 0
21 12 11 0
21 6 19 14 -17 0
21 6 -8 -16 0
21 -11 -6 -19 0
21 11 -5 17 -18 0
21 -9 -13 0
21 -9 5 0
21 -19 -3 1 -2 0
21 -18 12 16 0
21 -18 12 14 3 0
21 -15 6 0
21 -18 12 0
21 -17 3 -14 0
21 -16 -18 15 9 0
21 2 5 0
21 12 -4 14 -18 0
21 10 -19 -12 -20 0
21 4 -15 2 12 0
21 -20 9 1 5 0
1 -14 0
1 20 0
1 -9 -17 0
1 8 -9 0
1 18 -3 0
1 10 0
1 -8 0
1 12 0
1 -3 0
1 -20 -2 0
1 -3 12 0
1 3 -12 0
1 -15 -5 0
1 -8 0
1 -9 0
1 9 0
1 -15 0
1 19 17 0
1 14 -6 0
1 -8 0
