p wcnf 14 50 16
16 -7 13 4 0
16 8 3 0
16 -5 13 -11 -6 0
16 2 -1 0
16 9 -4 0
16 -14 2 0
16 -3 -10 11 0
16 3 -2 0
16 -14 -11 -6 0
16 11 14 0
16 2 3 -11 5 0
16 6 -11 5 0
16 -3 -1 0
16 14 -8 0
16 -7 6 13 0
16 13 -1 0
16 11 3 8 0
16 8 -6 -12 0
16 -3 7 -5 0
16 -8 1 4 0
16 -5 2 -7 0
16 -3 -5 -12 0
16 2 -10 -5 0
16 11 8 6 0
16 -5 2 6 10 0
16 12 13 6 -4 0
16 10 2 -13 12 0
16 -4 1 9 -3 0
16 -11 10 -6 0
16 10 -6 14 -2 0
16 13 1 4 0
16 -9 -7 -11 0
16 -4 -12 -9 0
16 8 2 -14 0
16 -7 -11 5 0
1 -9 0
1 11 7 0
1 -12 0
1 14 12 0
1 -8 0
1 6 0
1 11 0
1 3 0
1 -5 0
1 -7 0
1 -10 13 0
1 3 -12 0
1 -1 0
1 14 0
1 12 6 0
