p wcnf 17 57 11
11 1 -11 17 -10 0
11 3 14 -11 -15 0
11 -17 -13 14 -1 0
11 4 1 0
11 -13 -3 6 0
11 11 -8 16 0
11 7 -4 -13 2 0
11 12 -9 13 0
11 -14 15 0
11 -4 -15 -16 0
11 -8 -5 9 1 0
11 -8 14 -3 0
11 7 -6 15 0
11 -7 -1 0
11 4 16 -2 0
11 -8 -12 0
11 13 -14 0
11 -16 5 1 -4 0
11 11 -4 14 -16 0
11 12 1 0
11 -12 9 0
11 -13 2 0
11 -7 11 -10 0
11 -11 -12 0
11 -1 -5 0
11 2 -6 -11 0
11 7 -6 17 5 0
11 -6 13 1 -5 0
11 6 -16 -5 13 0
11 7 3 0
11 -16 -9 12 17 0
11 11 4 0
11 9 13 0
11 -4 -6 0
11 13 -14 0
11 7 1 11 -8 0
11 -7 -10 -17 0
11 4 -1 -3 -16 0
11 -13 1 0
11 8 -7 0
11 -11 -17 0
11 -5 -6 15 -12 0
11 11 16 -13 0
11 -12 13 -7 0
11 1 -2 17 0
11 3 -14 5 -7 0
11 16 -7 4 10 0
1 -17 0
1 -4 3 0
1 8 17 0
1 -17 0
1 12 0
1 -14 -15 0
1 -17 0
1 -8 0
1 6 0
1 2 0
