p wcnf 19 53 7
7 -6 -1 15 -12 0
7 -18 5 0
7 -2 3 0
7 -15 7 6 0
7 -14 -17 0
7 -17 19 13 0
7 -5 2 1 8 0
7 1 -16 -13 -8 0
7 6 1 -16 0
7 -10 -11 -15 0
7 10 -13 17 0
7 5 -8 -15 0
7 -8 -6 14 0
7 7 -12 -18 0
7 9 5 0
7 6 2 -12 0
7 -1 11 -2 -17 0
7 -11 -3 0
7 18 14 15 0
7 -6 4 15 0
7 -16 -13 -9 11 0
7 -8 3 0
7 -2 14 0
7 -10 13 5 0
7 -19 9 0
7 -16 -11 -6 0
7 1 -4 2 -14 0
7 -10 -2 -18 -5 0
7 -14 15 0
7 -1 14 0
7 6 -9 -15 -17 0
7 -13 -11 0
7 -19 1 8 -4 0
7 -7 -19 0
7 -12 -11 -18 0
7 -16 -15 -2 -12 0
7 11 1 0
7 15 -8 -9 0
7 9 -18 -12 -11 0
7 -17 -5 0
7 2 10 12 0
7 -17 8 3 0
7 -1 16 0
7 2 -7 0
7 13 -15 -10 3 0
7 -9 10 11 0
7 -8 18 -11 0
1 -3 0
1 -2 0
1 -9 14 0
1 11 3 0
1 -9 0
1 -2 0
