p wcnf 20 46 10
10 7 -6 -17 -5 0
10 -15 -12 16 0
10 -1 -6 15 0
10 -20 -14 -3 0
10 -17 -6 14 0
10 -18 -16 1 11 0
10 12 -1 4 0
10 13 -17 -15 20 0
10 3 -12 0
10 -5 14 0
10 15 5 8 0
10 17 -13 11 3 0
10 2 7 0
10 -8 -15 13 -16 0
10 -18 13 0
10 -9 -5 4 0
10 -13 2 0
10 4 -8 10 0
10 10 14 6 3 0
10 9 5 -13 0
10 9 13 -18 0
10 -10 -8 18 0
10 -15 19 0
10 -6 -16 -15 0
10 12 -14 11 0
10 5 12 0
10 -3 17 0
10 -5 11 0
10 -11 -6 1 12 0
10 7 10 -14 9 0
10 -12 2 -9 0
10 11 5 8 0
10 -12 -10 11 -7 0
10 -9 -4 -10 14 0
10 15 18 -17 9 0
10 6 -9 -10 19 0
10 -16 -10 -9 11 0
1 -4 18 0
1 -2 -3 0
1 -19 0
1 -5 0
1 20 18 0
1 1 16 0
1 20 -11 0
1 12 -1 0
1 3 0
