p wcnf 11 44 17
17 3 2 0
17 9 11 0
17 -9 -11 -3 0
17 5 4 7 -11 0
17 10 2 -9 8 0
17 1 -6 0
17 -10 3 0
17 -2 1 -8 10 0
17 -7 -10 4 -2 0
17 -1 11 -3 -7 0
17 -3 -5 0
17 -9 10 -7 8 0
17 9 -3 4 6 0
17 -7 -2 -6 9 0
17 -1 -3 0
17 -10 8 11 0
17 -11 -9 -4 -3 0
17 4 -10 0
17 1 6 -10 0
17 8 10 11 -7 0
17 -10 1 11 9 0
17 3 11 8 0
17 7 2 -11 1 0
17 5 -10 2 0
17 -9 -10 0
17 -9 -1 0
17 2 -8 9 0
17 -7 3 9 4 0
1 11 0
1 -1 3 0
1 4 -5 0
1 -7 11 0
1 8 0
1 1 0
1 -4 0
1 6 -11 0
1 3 0
1 -4 0
1 10 0
1 2 0
1 9 0
1 3 0
1 9 0
1 -4 0
