p wcnf 15 55 18
18 6 -12 -7 -11 0
18 4 -8 -1 0
18 6 -11 15 1 0
18 -3 -13 -14 -11 0
18 -13 -5 8 -1 0
18 8 12 -7 0
18 8 1 10 0
18 4 -5 -9 15 0
18 5 -7 11 0
18 -15 13 -2 0
18 4 13 12 -6 0
18 3 11 6 -15 0
18 -2 9 0
18 1 -15 0
18 9 -14 3 -1 0
18 13 -6 -12 0
18 3 4 0
18 1 -13 4 -3 0
18 -7 2 -4 9 0
18 6 -7 -11 4 0
18 -13 -9 0
18 9 5 7 -15 0
18 12 11 -13 -5 0
18 -1 3 6 0
18 -6 2 -11 -4 0
18 -1 -6 -8 -7 0
18 -12 1 11 0
18 1 -9 -11 -5 0
18 6 7 0
18 -5 -6 15 2 0
18 -12 -2 0
18 8 -10 -9 0
18 9 14 4 0
18 -11 6 -12 1 0
18 -12 4 -10 0
18 8 -7 -14 -12 0
18 -15 -11 0
18 -4 -14 2 -9 0
1 -1 0
1 -7 0
1 -14 0
1 10 0
1 14 0
1 -10 0
1 9 0
1 11 0
1 -10 0
1 3 -15 0
1 13 0
1 -9 0
1 15 0
1 10 11 0
1 14 11 0
1 -2 0
1 -11 0
