p wcnf 20 72 18
18 6 -9 0
18 -5 -16 0
18 -19 11 12 0
18 5 -1 0
18 10 17 -16 0
18 5 1 -19 -10 0
18 -20 -4 -9 -16 0
18 4 13 12 0
18 -17 15 18 0
18 20 -17 0
18 1 8 14 -16 0
18 -17 -20 -10 -18 0
18 13 -6 0
18 -5 -8 -4 -6 0
18 -4 -19 0
18 -11 17 0
18 19 -1 6 0
18 -18 -2 -5 13 0
18 -2 -14 1 16 0
18 12 20 0
18 -12 6 0
18 -12 10 4 -9 0
18 4 -20 2 0
18 11 2 -13 6 0
18 17 8 -7 0
18 -10 13 0
18 -13 -7 11 0
18 2 9 6 0
18 -5 -6 -8 0
18 1 -7 0
18 2 -10 -19 -3 0
18 17 -14 -7 -3 0
18 -3 20 -16 0
18 12 17 -5 9 0
18 -6 -4 0
18 -5 -12 -6 -17 0
18 -8 10 -9 0
18 -18 -1 0
18 20 13 0
18 -13 18 4 0
18 10 -1 9 0
18 -15 -10 -13 0
18 5 11 -1 7 0
18 -8 -20 6 0
18 6 4 0
18 -14 -17 -20 -9 0
18 18 4 19 0
18 -6 3 -17 8 0
18 -13 6 -19 7 0
18 -14 -9 -11 -8 0
18 5 16 -6 0
18 -7 2 0
18 19 13 8 2 0
18 16 10 0
18 17 -14 -20 0
1 4 0
1 -8 1 0
1 -2 -6 0
1 -7 1 0
1 -19 0
1 11 12 0
1 2 0
1 3 0
1 5 0
1 -2 20 0
1 3 0
1 -10 0
1 19 8 0
1 18 0
1 4 -8 0
1 -9 0
1 -20 -2 0
