p wcnf 13 56 21
21 -2 4 0
21 7 10 0
21 -10 11 -13 0
21 -2 7 -8 0
21 6 12 -10 0
21 -2 -9 13 0
21 -13 3 10 8 0
21 6 -7 0
21 -8 1 4 -7 0
21 -8 11 -7 -4 0
21 -12 5 -13 0
21 -5 -4 0
21 -9 4 -2 0
21 -11 9 0
21 -9 -11 0
21 -2 -7 -13 -6 0
21 -2 12 1 0
21 2 -8 -6 0
21 12 -7 0
21 3 13 -2 0
21 11 6 0
21 2 -9 0
21 -6 -13 0
21 -7 8 1 0
21 -12 -10 0
21 8 11 7 -12 0
21 1 -4 -12 -5 0
21 5 -2 12 0
21 3 -8 -6 -11 0
21 -8 -13 -3 9 0
21 -12 11 -5 0
21 -7 -3 0
21 10 11 0
21 -5 2 0
21 -3 10 0
21 9 -6 -3 0
1 5 0
1 8 0
1 11 0
1 10 6 0
1 -6 0
1 11 -4 0
1 11 2 0
1 -9 0
1 2 9 0
1 -3 0
1 -12 0
1 1 5 0
1 -4 0
1 2 0
1 6 -10 0
1 -1 -10 0
1 -10 4 0
1 -1 0
1 3 7 0
1 -8 10 0
