p wcnf 18 49 18
18 -7 4 6 0
18 -18 11 0
18 -5 13 -6 0
18 4 -1 0
18 -2 15 0
18 5 4 0
18 2 -6 0
18 10 11 0
18 -18 -4 -1 0
18 -15 6 2 0
18 -9 7 0
18 -11 15 8 0
18 9 -1 -13 0
18 -16 2 0
18 4 9 14 0
18 8 -16 0
18 -6 -12 0
18 -4 -1 0
18 8 14 10 -1 0
18 -1 -14 11 0
18 -10 14 -5 0
18 -6 -18 9 -1 0
18 9 -2 -10 0
18 -6 17 18 -7 0
18 16 -4 0
18 -1 2 -16 0
18 -15 6 0
18 -17 10 12 16 0
18 -4 17 3 0
18 4 -9 0
18 -8 16 12 1 0
18 17 9 -11 -8 0
1 10 7 0
1 8 0
1 -18 0
1 -8 0
1 -16 0
1 -3 0
1 -11 0
1 -2 0
1 18 13 0
1 9 0
1 -10 -7 0
1 1 0
1 13 0
1 11 2 0
1 15 8 0
1 15 0
1 -10 0
