p wcnf 20 61 8
8 -3 -5 8 -18 0
8 -8 10 17 -9 0
8 -9 -7 0
8 -18 4 13 5 0
8 -3 14 -18 -9 0
8 9 15 -11 -1 0
8 -5 12 0
8 -13 -1 0
8 -2 8 6 16 0
8 -16 19 0
8 -19 -13 17 -15 0
8 -4 -10 1 -2 0
8 20 -12 6 2 0
8 -13 16 6 0
8 8 -6 -20 0
8 5 3 -20 0
8 2 5 0
8 1 12 -7 0
8 3 16 7 0
8 8 -20 -18 -5 0
8 10 -17 20 -1 0
8 -20 1 18 -11 0
8 -8 -19 0
8 -17 8 -5 0
8 -8 11 0
8 8 17 13 14 0
8 -15 17 13 0
8 17 6 8 -1 0
8 -2 -20 -19 0
8 -13 2 -1 3 0
8 -15 -19 8 0
8 -7 -17 0
8 10 -6 -19 0
8 6 -18 0
8 -18 9 0
8 8 -18 4 0
8 -20 4 2 -16 0
8 -11 15 4 0
8 13 -14 -10 -6 0
8 5 -17 1 7 0
8 4 18 6 0
8 19 -7 0
8 -17 14 15 0
8 -10 -7 0
8 -6 20 0
8 15 -17 0
8 -12 -6 -5 10 0
8 -9 -1 -5 -14 0
8 -3 15 0
8 7 2 -6 0
8 2 18 13 6 0
8 3 -10 -12 0
8 8 -4 -10 -19 0
8 -11 -2 -12 15 0
1 -16 -6 0
1 -19 0
1 -14 0
1 15 0
1 20 0
1 7 0
1 -15 -17 0
