p wcnf 19 52 16
16 9 6 3 0
16 -8 13 -6 0
16 -10 -13 0
16 3 -19 0
16 -1 10 9 -11 0
16 8 -2 -7 17 0
16 4 17 -9 18 0
16 10 4 0
16 13 15 17 0
16 -19 18 -11 0
16 12 15 -4 0
16 1 -16 -11 10 0
16 -12 -4 -13 11 0
16 19 2 -5 -9 0
16 4 2 6 -17 0
16 -12 17 -14 0
16 -6 -1 17 9 0
16 -2 -4 7 9 0
16 -1 11 -4 0
16 15 7 2 -5 0
16 -2 14 0
16 5 -15 0
16 -12 2 16 8 0
16 -5 19 14 -9 0
16 -3 19 0
16 17 1 18 0
16 -13 17 -15 -16 0
16 -6 -5 -16 2 0
16 11 -2 1 14 0
16 -19 -13 3 2 0
16 -10 -6 -1 0
16 16 -14 0
16 -8 17 6 -2 0
16 11 -10 9 0
16 6 16 -3 0
16 9 18 -3 10 0
16 6 -1 14 9 0
1 -2 0
1 14 0
1 10 0
1 -1 0
1 9 8 0
1 14 12 0
1 -11 0
1 -2 -1 0
1 17 0
1 -5 0
1 -8 4 0
1 1 0
1 -14 0
1 -14 -1 0
1 19 0
