p wcnf 19 45 15
15 5 -12 -8 0
15 8 6 -3 15 0
15 6 10 -12 7 0
15 10 -1 0
15 -17 -11 0
15 -12 19 -4 -10 0
15 -2 6 -15 0
15 2 -18 9 0
15 19 5 0
15 19 10 0
15 -18 2 0
15 9 16 0
15 -3 15 0
15 -5 1 9 -3 0
15 14 -15 0
15 -13 -11 -8 0
15 19 -17 9 12 0
15 -14 6 -13 3 0
15 -17 -4 -11 -19 0
15 -11 -7 2 0
15 18 -11 2 0
15 11 13 -14 -9 0
15 8 1 0
15 -3 19 -8 -15 0
15 -11 6 15 -5 0
15 -12 -7 0
15 16 6 14 0
15 -11 5 13 0
15 15 -19 -2 -1 0
15 6 5 -17 -11 0
15 -4 18 -3 13 0
1 1 0
1 -6 -9 0
1 -18 0
1 -7 0
1 -12 -16 0
1 3 0
1 3 0
1 -18 0
1 6 2 0
1 -3 -18 0
1 16 0
1 -17 0
1 9 0
1 19 -5 0
