p wcnf 20 51 12
12 -20 -5 0
12 3 15 -8 -11 0
12 -2 18 -11 0
12 -8 4 -19 0
12 -2 -9 14 4 0
12 -16 14 10 -7 0
12 18 3 0
12 -11 -18 -4 8 0
12 -16 13 0
12 -16 11 0
12 -2 16 -13 20 0
12 3 5 0
12 15 -1 -18 -5 0
12 -16 -3 4 0
12 -20 4 -15 -12 0
12 -6 -13 -14 0
12 5 4 -13 0
12 -12 -1 11 0
12 -13 -12 10 0
12 16 5 -11 10 0
12 -17 13 0
12 -16 -10 -1 0
12 -6 -19 14 0
12 8 -13 0
12 8 19 17 0
12 6 -12 8 -4 0
12 -11 -19 -1 0
12 18 -5 17 12 0
12 -14 -3 0
12 8 4 0
12 1 19 0
12 -6 1 0
12 -18 20 -4 -19 0
12 3 -11 0
12 2 14 0
12 -20 -6 11 14 0
12 17 4 11 -1 0
12 -18 8 0
12 -15 -9 18 -5 0
12 -20 7 0
1 7 0
1 11 14 0
1 16 14 0
1 -11 0
1 15 0
1 12 0
1 13 0
1 -19 0
1 20 -6 0
1 -16 0
1 -6 0
