p wcnf 12 45 18
18 -1 -8 -10 -4 0
18 6 -8 1 0
18 2 7 -10 -5 0
18 3 8 9 11 0
18 -3 7 0
18 -11 3 5 -9 0
18 10 5 3 0
18 3 -10 6 0
18 -2 -4 -1 0
18 -10 6 0
18 -7 6 1 -2 0
18 11 -6 12 0
18 -11 10 3 1 0
18 -9 -5 -12 0
18 11 -2 6 0
18 -4 -8 -11 12 0
18 9 -8 0
18 6 11 -2 -8 0
18 5 10 -12 0
18 7 -12 1 0
18 8 2 3 0
18 6 -9 -12 -7 0
18 4 6 -3 11 0
18 -9 -4 2 -11 0
18 -2 -4 -7 9 0
18 8 -12 -2 3 0
18 -4 -11 -2 0
18 -4 10 0
1 7 4 0
1 -2 0
1 -3 -11 0
1 11 -4 0
1 -2 0
1 -8 0
1 -11 -8 0
1 -3 0
1 5 0
1 9 0
1 -12 0
1 4 0
1 2 0
1 -10 0
1 3 0
1 2 0
1 12 -5 0
