p wcnf 20 41 18
18 -17 15 7 0
18 14 -15 12 -6 0
18 1 15 -3 -6 0
18 5 3 12 13 0
18 7 11 -18 19 0
18 3 19 14 0
18 -10 -11 0
18 -11 9 12 -6 0
18 9 18 4 0
18 -17 -11 3 0
18 16 -14 -10 8 0
18 2 4 9 0
18 -17 -3 7 13 0
18 14 -9 3 20 0
18 -17 -18 2 0
18 -10 8 17 12 0
18 -18 -19 0
18 -8 -16 0
18 -15 -20 -6 -1 0
18 9 -19 -10 -2 0
18 -17 -4 0
18 17 5 15 0
18 -3 6 -18 -11 0
18 -9 -16 -17 -6 0
1 -13 0
1 15 10 0
1 -9 0
1 16 -17 0
1 16 0
1 12 0
1 -1 0
1 5 0
1 15 4 0
1 12 0
1 7 0
1 -11 0
1 20 -2 0
1 16 0
1 1 -5 0
1 -13 7 0
1 -13 -4 0
