p wcnf 15 49 9
9 12 -2 13 4 0
9 8 -10 3 13 0
9 3 8 7 -15 0
9 10 -7 0
9 15 -5 7 12 0
9 5 3 14 -8 0
9 -3 -14 -7 0
9 -9 -15 3 0
9 4 3 -2 6 0
9 7 -15 -14 0
9 -15 12 0
9 14 6 11 -1 0
9 13 -7 -6 -8 0
9 8 -9 0
9 -7 -8 0
9 -6 -15 -12 0
9 3 15 4 7 0
9 -1 -6 15 9 0
9 -13 12 0
9 8 -13 -1 0
9 -11 -5 15 0
9 -12 7 13 9 0
9 -2 9 0
9 -15 7 0
9 -4 -6 -13 -15 0
9 -12 -7 -8 2 0
9 -3 1 -12 -4 0
9 8 -13 -6 -2 0
9 -11 -3 0
9 -6 2 -14 -13 0
9 -8 -1 0
9 6 -2 0
9 9 -15 0
9 -5 -7 10 0
9 14 2 3 0
9 2 4 13 0
9 3 -1 9 0
9 10 6 0
9 14 10 -9 0
9 -4 -11 3 0
9 -7 -4 0
1 7 -1 0
1 15 1 0
1 14 -10 0
1 10 0
1 3 0
1 5 0
1 -9 0
1 -14 -4 0
