p wcnf 20 58 15
15 12 -7 -14 -15 0
15 20 -8 19 13 0
15 -19 -11 9 4 0
15 11 -14 0
15 -9 -1 0
15 -11 -3 0
15 19 -11 -4 5 0
15 -19 -20 0
15 -2 17 -19 0
15 16 5 18 0
15 7 -12 10 0
15 7 4 0
15 -4 3 -14 -2 0
15 -6 20 0
15 11 -6 16 0
15 -3 7 -8 0
15 -19 -2 10 17 0
15 -1 -2 -11 -16 0
15 -12 19 -3 -20 0
15 19 -15 -11 0
15 8 -19 15 0
15 -8 1 -5 0
15 13 -5 -3 0
15 11 3 -17 0
15 -8 -1 14 -19 0
15 -16 4 14 0
15 14 13 15 0
15 13 20 -17 15 0
15 -20 -6 -17 3 0
15 4 -11 0
15 13 -2 -8 -18 0
15 3 17 7 0
15 -6 1 0
15 -7 4 0
15 10 9 12 -11 0
15 -13 10 -7 0
15 -4 -2 -18 0
15 7 19 10 0
15 18 4 0
15 -9 -18 5 -20 0
15 -6 18 -13 -7 0
15 2 18 3 -5 0
15 15 -9 0
15 4 -12 9 13 0
1 -5 -15 0
1 4 0
1 15 0
1 11 1 0
1 13 0
1 10 0
1 11 0
1 -19 0
1 15 0
1 -17 -20 0
1 7 0
1 -13 0
1 12 5 0
1 13 0
