p wcnf 16 62 18
18 15 7 -9 -10 0
18 7 -6 2 0
18 8 14 10 0
18 6 7 0
18 12 10 -7 2 0
18 -1 -7 6 0
18 14 -3 0
18 -10 -5 6 0
18 7 -11 0
18 10 9 0
18 -2 1 16 11 0
18 12 4 0
18 -10 15 -2 -16 0
18 4 9 -3 0
18 -3 2 -5 0
18 4 16 11 10 0
18 -2 -3 0
18 12 -6 1 0
18 -2 -6 0
18 15 16 0
18 -6 -13 9 2 0
18 -5 8 7 0
18 -2 -14 0
18 4 15 0
18 16 -3 14 0
18 10 -5 0
18 -3 6 0
18 -1 -11 -13 -4 0
18 1 -2 0
18 6 15 -8 4 0
18 12 -2 -9 -5 0
18 -14 4 -7 -2 0
18 -3 -7 -14 0
18 15 14 1 0
18 -10 -4 14 0
18 10 -2 15 0
18 4 -3 11 0
18 6 12 14 -7 0
18 -13 -16 0
18 -3 -11 -1 0
18 -2 12 0
18 -6 -10 15 0
18 11 5 -12 0
18 -1 -12 0
18 -13 11 0
1 6 0
1 6 0
1 12 0
1 -3 0
1 -14 0
1 9 0
1 -10 0
1 6 0
1 -8 0
1 -10 0
1 -9 -4 0
1 -2 0
1 -10 0
1 -1 0
1 -13 0
1 -15 0
1 -14 0
