p wcnf 16 48 16
16 16 14 -15 0
16 -13 12 -10 -15 0
16 -5 -12 0
16 5 14 0
16 -1 -15 14 0
16 -4 -14 -12 0
16 -10 -16 -8 -13 0
16 6 15 0
16 2 15 13 0
16 -1 10 0
16 14 -7 2 0
16 -3 -7 13 0
16 -5 3 0
16 13 -7 -14 5 0
16 -11 -16 0
16 14 13 -12 0
16 12 11 8 0
16 -8 -2 -11 0
16 -15 3 -7 0
16 10 -13 0
16 -1 -12 0
16 1 -4 0
16 8 -10 0
16 10 16 0
16 15 -8 0
16 11 15 9 0
16 3 -7 -11 0
16 16 -5 -11 0
16 -6 16 10 0
16 -6 -13 -11 0
16 11 13 3 0
16 -1 12 0
16 16 -11 0
1 12 0
1 1 0
1 -9 0
1 -12 0
1 2 0
1 -15 0
1 8 0
1 -15 0
1 -12 0
1 4 -3 0
1 -3 5 0
1 -6 10 0
1 -9 0
1 7 0
1 5 -13 0
