p wcnf 11 51 20
20 1 3 0
20 7 -1 8 -9 0
20 -11 1 -3 0
20 -8 -5 9 0
20 2 -8 0
20 -3 11 0
20 -5 3 8 4 0
20 2 -6 8 0
20 -8 -4 0
20 -5 11 0
20 -2 8 7 -10 0
20 -1 -6 0
20 -7 -2 0
20 -8 -6 0
20 -8 9 0
20 -1 -7 3 5 0
20 1 7 0
20 4 -8 0
20 -7 -9 0
20 -7 10 3 0
20 11 -5 0
20 3 -8 7 -10 0
20 -2 9 -6 1 0
20 7 -3 -8 -4 0
20 4 -6 0
20 -7 3 -2 -10 0
20 9 -7 0
20 -3 9 8 5 0
20 -6 -1 -5 11 0
20 10 -1 0
20 -11 -2 0
20 -8 -10 -11 0
1 -1 4 0
1 -9 -8 0
1 7 0
1 -10 0
1 -4 0
1 3 0
1 -7 0
1 10 -2 0
1 6 0
1 -5 -3 0
1 4 -2 0
1 11 0
1 6 0
1 6 -9 0
1 10 0
1 -2 -6 0
1 -8 0
1 -9 0
1 3 0
