p wcnf 17 42 15
15 7 -1 -6 -3 0
15 -17 -1 -6 0
15 -9 -11 -15 12 0
15 -15 6 5 12 0
15 -7 1 -16 0
15 8 -3 0
15 10 15 -1 0
15 9 -5 0
15 11 -16 -3 -8 0
15 -6 12 15 0
15 1 -9 4 16 0
15 15 13 0
15 13 -7 0
15 7 4 11 0
15 4 -2 5 0
15 -1 6 3 0
15 -15 10 -3 0
15 -12 5 -2 6 0
15 -7 -11 17 -2 0
15 15 -11 -6 0
15 9 -10 0
15 -12 5 16 0
15 -9 -1 12 0
15 15 9 7 -4 0
15 -10 2 -12 0
15 3 -5 0
15 -5 -2 0
15 -12 -16 -4 11 0
1 6 -16 0
1 -14 0
1 -13 0
1 -10 0
1 -8 0
1 -8 0
1 12 6 0
1 -2 0
1 15 0
1 -6 0
1 -9 0
1 -3 0
1 -12 0
1 -14 0
