p wcnf 19 56 21
21 9 17 2 0
21 -9 19 0
21 -13 16 0
21 16 7 19 -3 0
21 8 6 -15 0
21 -3 -4 18 11 0
21 9 5 -15 0
21 -3 17 12 0
21 -9 -1 -5 0
21 18 -3 0
21 5 -1 -8 6 0
21 8 15 -4 0
21 -3 6 -5 11 0
21 14 -1 6 0
21 10 5 14 0
21 11 -8 12 -1 0
21 15 13 -5 -4 0
21 3 -5 0
21 11 13 15 0
21 17 -19 -6 -9 0
21 6 3 16 -9 0
21 -16 -6 13 15 0
21 -15 1 -6 16 0
21 -1 -7 18 5 0
21 16 -11 0
21 -7 3 0
21 -7 18 -2 0
21 3 -9 -4 0
21 -19 -12 0
21 6 11 8 0
21 7 3 12 0
21 1 -9 -6 0
21 9 -15 -5 -4 0
21 18 16 0
21 15 -13 19 0
21 5 -11 -12 0
1 -12 15 0
1 -11 8 0
1 14 0
1 11 0
1 5 0
1 -5 -13 0
1 -13 0
1 -14 9 0
1 -17 -13 0
1 -10 0
1 15 0
1 15 0
1 -8 4 0
1 -16 0
1 19 0
1 -9 0
1 -13 8 0
1 -5 0
1 15 0
1 -6 0
