p wcnf 19 44 20
20 -19 -9 -2 -18 0
20 3 -5 0
20 6 -15 -14 0
20 -1 -14 -10 19 0
20 9 -5 -13 -11 0
20 -9 6 0
20 8 5 6 0
20 -19 -14 12 -1 0
20 -10 -17 0
20 7 5 13 -11 0
20 13 7 -12 0
20 15 17 0
20 18 1 -8 -15 0
20 -2 -1 3 6 0
20 5 8 -19 -4 0
20 11 10 7 0
20 -18 -16 0
20 -12 -7 0
20 14 -15 0
20 -8 6 9 0
20 -3 -11 -1 0
20 -10 -6 7 -8 0
20 -14 -2 3 -16 0
20 -10 16 -14 -2 0
20 -11 -7 -1 0
1 -8 6 0
1 -5 0
1 -19 0
1 -9 17 0
1 6 0
1 -4 0
1 7 11 0
1 7 0
1 7 13 0
1 -11 -4 0
1 8 0
1 7 0
1 -18 -4 0
1 7 0
1 -17 0
1 9 -3 0
1 1 0
1 -18 0
1 11 19 0
