p wcnf 17 60 17
17 11 -13 0
17 -4 -5 16 0
17 5 12 0
17 -12 8 0
17 4 1 0
17 7 -15 0
17 15 6 0
17 8 4 -9 -3 0
17 -14 -7 0
17 -2 -7 -11 6 0
17 -4 -8 -6 1 0
17 10 -6 3 2 0
17 -11 10 0
17 -17 1 15 0
17 13 -11 17 -8 0
17 7 17 0
17 8 -9 10 0
17 -3 -15 4 0
17 -17 -14 0
17 -8 -5 6 -17 0
17 -12 5 0
17 4 -11 0
17 3 -7 -15 0
17 4 -6 -9 0
17 16 -3 -15 13 0
17 -16 14 17 5 0
17 -12 2 -16 0
17 -11 13 0
17 7 -2 0
17 8 -17 0
17 2 3 16 0
17 -14 -7 0
17 -2 -8 12 0
17 14 8 -3 9 0
17 -12 -3 -10 0
17 -17 9 14 0
17 -13 5 0
17 -12 16 5 14 0
17 -7 -1 -10 0
17 -10 4 -9 0
17 -6 -3 -9 0
17 -7 -9 0
17 -4 12 17 9 0
17 -17 8 11 1 0
1 4 0
1 8 0
1 1 12 0
1 1 7 0
1 -8 0
1 3 -4 0
1 -17 0
1 16 0
1 6 0
1 -6 0
1 -2 0
1 -9 0
1 -6 0
1 -4 0
1 2 -7 0
1 3 0
