p wcnf 17 51 19
19 9 12 -1 -11 0
19 -10 3 15 9 0
19 -9 -6 -5 0
19 -14 15 0
19 -13 -3 -12 0
19 10 -15 -1 5 0
19 7 10 4 16 0
19 -13 -9 0
19 -13 -5 0
19 -10 8 -9 0
19 -5 -11 -12 7 0
19 17 12 -6 11 0
19 15 1 0
19 11 13 0
19 12 7 -13 0
19 -17 8 -10 0
19 6 -8 -2 0
19 9 2 -14 0
19 1 -2 -6 -7 0
19 3 6 -2 5 0
19 -4 -2 13 0
19 -17 -3 14 0
19 4 6 0
19 13 -10 -9 -8 0
19 4 13 -17 -12 0
19 5 16 0
19 -13 7 0
19 -8 -12 7 -11 0
19 -9 -12 14 0
19 2 -10 1 0
19 12 -10 2 -6 0
19 8 6 1 13 0
19 -3 -2 4 9 0
1 7 0
1 15 4 0
1 10 0
1 -8 7 0
1 1 0
1 -2 0
1 17 15 0
1 14 0
1 -7 -13 0
1 -5 10 0
1 4 -9 0
1 -12 0
1 -13 0
1 6 -7 0
1 -5 -8 0
1 14 0
1 -5 0
1 14 -6 0
