p wcnf 17 67 19
19 3 16 0
19 10 -1 0
19 4 -6 13 11 0
19 17 -11 5 0
19 11 -5 0
19 2 17 11 3 0
19 -14 -1 -2 -7 0
19 -17 -6 0
19 -9 -13 -14 -7 0
19 -2 7 0
19 -16 17 -7 0
19 -10 -4 14 0
19 7 -15 0
19 -4 -12 11 13 0
19 -6 -15 0
19 -6 -10 1 -16 0
19 -5 -1 0
19 13 -1 0
19 8 -9 -15 10 0
19 8 -13 -15 16 0
19 10 17 0
19 17 -9 0
19 -15 -13 0
19 11 1 -10 -8 0
19 15 16 -6 0
19 -15 6 17 0
19 -12 2 10 0
19 -1 -2 -15 0
19 -1 -17 -7 -5 0
19 -10 4 0
19 -8 -14 0
19 -11 -15 -17 0
19 11 -6 -5 0
19 -17 13 -4 15 0
19 13 -12 -5 3 0
19 4 -1 10 0
19 -2 -11 -16 -5 0
19 5 -4 0
19 11 -5 -16 2 0
19 8 -6 0
19 17 14 -9 3 0
19 -3 -15 0
19 13 16 14 5 0
19 4 1 0
19 -1 -4 -2 14 0
19 -2 -3 -13 7 0
19 10 13 0
19 -14 -11 12 0
19 10 11 2 0
1 -7 0
1 12 10 0
1 7 0
1 5 0
1 14 4 0
1 16 0
1 -7 0
1 -1 0
1 -16 0
1 -6 0
1 9 0
1 3 0
1 3 0
1 -10 0
1 -14 -10 0
1 -16 0
1 17 -8 0
1 13 0
