p wcnf 17 61 21
21 -2 -15 3 5 0
21 16 12 9 0
21 -11 -14 -5 0
21 11 -1 -8 0
21 5 -13 0
21 14 5 0
21 6 15 0
21 9 -3 2 0
21 14 8 -15 -17 0
21 6 -13 12 -4 0
21 3 11 10 6 0
21 17 11 0
21 4 5 -3 0
21 -15 -12 0
21 -17 16 -14 0
21 -3 8 0
21 -10 -6 16 0
21 10 -14 -1 0
21 5 11 0
21 -7 -12 -1 -15 0
21 2 1 4 -3 0
21 4 -11 -14 -9 0
21 10 3 0
21 -11 13 12 0
21 -16 -11 0
21 8 15 13 0
21 -7 15 0
21 -12 -11 -10 -17 0
21 5 14 0
21 6 -1 -14 -9 0
21 -4 15 12 -10 0
21 -3 -12 -10 0
21 -10 -7 -1 -5 0
21 17 -5 16 0
21 13 -16 -14 0
21 -12 10 0
21 -12 6 4 0
21 -11 12 -14 3 0
21 16 -7 0
21 6 -5 0
21 6 -10 0
1 16 5 0
1 -16 0
1 -11 0
1 -1 0
1 -4 0
1 17 0
1 -10 0
1 -12 0
1 13 0
1 10 0
1 -7 0
1 -15 0
1 5 0
1 10 -5 0
1 -13 -9 0
1 14 0
1 6 2 0
1 -15 0
1 -16 1 0
1 -4 7 0
