p wcnf 19 53 13
13 10 -11 -1 0
13 -2 -8 0
13 15 -7 0
13 10 16 0
13 -13 11 0
13 -10 13 0
13 -6 12 -13 14 0
13 -18 1 9 0
13 -9 7 0
13 -4 -2 0
13 -10 -4 -16 -1 0
13 8 6 -18 19 0
13 5 -10 8 14 0
13 19 4 -7 -11 0
13 -9 18 -3 -17 0
13 -1 11 -14 18 0
13 15 -1 0
13 2 -8 17 0
13 -2 -1 -3 -9 0
13 -4 19 -17 0
13 15 -2 0
13 15 16 -17 2 0
13 -6 -3 8 0
13 14 13 16 0
13 9 -2 0
13 12 9 0
13 -11 -8 9 -17 0
13 11 14 10 5 0
13 -18 -9 0
13 14 3 16 -12 0
13 -4 11 -9 -14 0
13 -2 -15 -11 12 0
13 -15 -6 -9 0
13 4 2 9 0
13 -10 13 -3 0
13 9 19 12 7 0
13 -13 -6 -4 -12 0
13 -11 16 -14 0
13 -3 2 7 -18 0
13 -8 -4 12 0
13 12 -14 0
1 3 0
1 -18 0
1 4 18 0
1 19 0
1 11 -1 0
1 1 0
1 10 17 0
1 8 0
1 12 0
1 -13 0
1 -2 -5 0
1 -5 0
