p wcnf 20 76 19
19 -10 -19 0
19 1 13 0
19 -2 7 0
19 13 -6 -8 0
19 16 5 -4 12 0
19 -11 -15 16 5 0
19 20 7 -3 0
19 -18 16 5 0
19 -19 15 -12 0
19 -10 -5 0
19 15 -10 18 7 0
19 -4 17 12 0
19 11 7 -12 13 0
19 -10 -3 11 17 0
19 8 6 0
19 18 5 -3 -14 0
19 16 -17 0
19 4 -16 6 -15 0
19 -6 12 15 0
19 9 16 3 0
19 11 1 4 9 0
19 19 -16 1 0
19 2 11 0
19 20 7 2 -8 0
19 8 5 0
19 -17 3 18 0
19 -16 10 -4 0
19 17 -2 11 0
19 18 14 -8 10 0
19 6 -1 -12 11 0
19 -7 -3 -1 4 0
19 11 13 0
19 -16 -12 15 0
19 20 7 11 -1 0
19 -12 -15 -7 0
19 15 -11 2 0
19 5 8 14 13 0
19 10 -8 19 -13 0
19 17 16 11 0
19 -16 -1 4 0
19 20 -2 9 7 0
19 4 -11 -6 12 0
19 -8 -14 -2 0
19 13 -19 0
19 -1 3 -13 16 0
19 15 -10 0
19 16 17 8 0
19 -1 -3 8 0
19 15 -8 16 1 0
19 5 -12 0
19 16 -4 -7 0
19 10 -18 2 -7 0
19 -12 -1 0
19 2 16 -17 0
19 -10 -8 5 6 0
19 16 11 -17 5 0
19 6 19 0
19 4 -5 14 0
1 12 0
1 -10 -1 0
1 -15 0
1 4 0
1 -4 0
1 -4 0
1 2 -20 0
1 5 0
1 -14 -7 0
1 -15 1 0
1 -6 12 0
1 2 0
1 -17 -1 0
1 19 0
1 -7 0
1 19 -12 0
1 14 0
1 -12 -2 0
