p wcnf 17 59 11
11 3 7 -1 -14 0
11 9 11 0
11 16 4 -17 1 0
11 5 -11 7 -2 0
11 -15 -3 0
11 -16 -2 4 0
11 -12 4 0
11 -13 -8 17 0
11 3 7 0
11 16 -4 -8 -9 0
11 -9 8 -12 -1 0
11 14 11 -3 -2 0
11 -4 -10 13 -7 0
11 -16 8 0
11 11 -14 -4 0
11 -16 -11 7 0
11 8 -1 3 13 0
11 3 8 0
11 14 17 -15 -13 0
11 -6 2 3 0
11 12 -15 -13 0
11 -13 -12 5 0
11 -17 7 14 0
11 -1 -8 0
11 11 7 -6 8 0
11 -2 -7 -12 0
11 10 -15 2 0
11 -14 6 -9 0
11 -6 -17 0
11 6 -7 0
11 -3 9 0
11 -10 -7 4 0
11 15 13 -8 0
11 4 -8 -5 -10 0
11 12 13 -3 -11 0
11 -17 -14 -5 -11 0
11 16 -1 0
11 14 -15 -3 0
11 9 -16 -10 0
11 -4 1 0
11 -5 12 -6 -14 0
11 -4 13 12 3 0
11 10 -9 -13 2 0
11 -17 14 -13 7 0
11 -6 -17 0
11 -14 -7 16 -13 0
11 4 17 -15 0
11 -12 8 0
11 4 -17 0
1 -6 13 0
1 -5 0
1 8 0
1 11 0
1 2 0
1 5 17 0
1 14 9 0
1 -2 17 0
1 2 10 0
1 1 17 0
