p wcnf 18 51 12
12 7 -16 -14 0
12 -18 12 -15 0
12 4 1 0
12 3 8 -10 0
12 2 11 0
12 1 11 2 0
12 -15 5 2 0
12 -2 -17 11 -16 0
12 14 3 5 0
12 -5 6 0
12 -17 -5 -1 -16 0
12 -15 16 12 -6 0
12 8 -4 14 0
12 4 17 13 0
12 -14 -3 -15 0
12 -4 10 -15 0
12 9 -8 -6 0
12 7 3 -11 0
12 -12 10 0
12 16 -7 4 0
12 -16 -12 3 -4 0
12 -9 -16 -10 18 0
12 -2 11 -8 0
12 -11 6 12 0
12 -7 -13 -3 0
12 17 5 3 0
12 -8 -2 -10 0
12 -18 -13 -8 0
12 -14 15 9 0
12 13 1 -18 14 0
12 -6 17 15 -13 0
12 16 6 0
12 2 5 1 0
12 7 13 15 12 0
12 13 -17 0
12 -17 13 11 0
12 15 -7 -18 -17 0
12 -2 -1 16 0
12 10 -16 0
12 -3 -4 -15 0
1 16 0
1 8 0
1 -10 -7 0
1 -6 0
1 -8 0
1 -8 0
1 8 0
1 -11 7 0
1 -17 0
1 6 1 0
1 -1 -7 0
