p wcnf 11 47 18
18 7 9 0
18 5 -9 0
18 -3 -10 -9 0
18 3 -5 0
18 -10 -4 8 6 0
18 5 9 0
18 8 7 -5 6 0
18 -10 9 0
18 -10 5 -9 0
18 -11 9 -7 -5 0
18 11 9 2 1 0
18 -8 -1 2 -7 0
18 6 3 -11 -8 0
18 -5 -7 -11 -1 0
18 7 2 1 6 0
18 6 -3 4 -7 0
18 -8 -4 7 -1 0
18 11 5 -8 0
18 -9 5 0
18 -11 8 0
18 -1 -6 4 9 0
18 -4 -1 8 -6 0
18 4 5 0
18 5 -3 -6 10 0
18 7 3 -10 -4 0
18 -2 8 10 0
18 -4 -2 0
18 -8 -1 7 -9 0
18 3 -4 0
18 5 2 6 0
1 -7 0
1 -5 2 0
1 10 0
1 5 0
1 5 -2 0
1 -4 -11 0
1 11 0
1 4 -9 0
1 3 1 0
1 2 0
1 2 0
1 -9 0
1 10 0
1 -3 0
1 -7 0
1 -5 0
1 -3 -2 0
