p wcnf 18 66 18
18 14 -3 -16 0
18 3 15 0
18 9 -15 14 12 0
18 9 -15 0
18 -12 5 1 0
18 -13 -4 1 0
18 -11 3 0
18 7 15 0
18 5 7 15 -18 0
18 -1 -12 0
18 -16 17 0
18 1 3 -5 0
18 10 2 5 13 0
18 -7 9 -18 -12 0
18 11 8 0
18 18 -14 -10 0
18 -7 -17 -11 4 0
18 8 1 -6 0
18 -2 -8 0
18 12 -4 0
18 -3 -11 14 0
18 -12 -11 4 0
18 -15 3 0
18 -2 -11 0
18 -9 3 -16 14 0
18 3 -5 -7 0
18 2 -8 10 -1 0
18 -5 11 1 4 0
18 -9 7 0
18 17 12 8 0
18 -7 10 -6 0
18 12 -7 1 -17 0
18 14 -17 -18 3 0
18 11 15 -12 -1 0
18 -9 16 0
18 -5 -18 14 12 0
18 6 -8 -18 13 0
18 13 -12 -5 0
18 -13 10 -17 0
18 -14 -13 0
18 -15 1 0
18 5 4 16 0
18 5 11 0
18 -5 16 -13 -2 0
18 -13 -1 -14 11 0
18 -18 -15 0
18 -12 16 -5 3 0
18 13 1 11 -18 0
18 -12 4 0
1 2 -13 0
1 10 0
1 8 0
1 12 3 0
1 18 0
1 17 0
1 6 10 0
1 6 0
1 -9 -8 0
1 -2 3 0
1 9 0
1 -17 0
1 -6 0
1 -9 0
1 9 0
1 -15 0
1 16 0
