p wcnf 15 48 15
15 1 -11 6 0
15 -6 10 9 -3 0
15 13 3 0
15 -5 -8 14 1 0
15 9 -4 0
15 -15 10 4 0
15 -9 -3 11 0
15 8 -15 -1 -6 0
15 -7 -6 -13 0
15 -6 -8 4 -5 0
15 -6 3 -2 0
15 -2 3 -14 0
15 -13 6 12 14 0
15 -6 -12 0
15 -4 -14 1 0
15 2 5 9 0
15 6 4 0
15 -15 -8 -14 9 0
15 13 -3 0
15 -9 -14 0
15 -12 9 -6 0
15 10 8 0
15 -14 9 -10 3 0
15 5 12 -3 6 0
15 3 -14 0
15 9 -13 -15 0
15 2 13 0
15 3 -9 1 0
15 -13 14 4 0
15 -4 5 0
15 8 7 1 0
15 6 2 -8 4 0
15 12 2 9 0
15 -12 13 0
1 -12 -9 0
1 1 -8 0
1 -7 0
1 -6 0
1 6 0
1 14 -5 0
1 1 -6 0
1 3 -8 0
1 5 0
1 5 0
1 9 3 0
1 8 0
1 -9 7 0
1 -15 0
