p wcnf 13 44 15
15 2 9 0
15 -3 6 0
15 -8 -1 4 5 0
15 6 10 -1 0
15 -1 -13 0
15 -9 -4 -3 6 0
15 -10 11 0
15 5 -9 12 0
15 7 8 -3 0
15 -7 9 13 -3 0
15 -8 -9 0
15 -3 -11 -2 0
15 1 -8 2 5 0
15 6 -8 7 0
15 6 -7 0
15 1 -11 0
15 10 4 0
15 -1 -5 0
15 9 8 -7 -13 0
15 -9 -5 -13 0
15 -10 2 0
15 13 -3 6 9 0
15 6 1 0
15 -3 7 5 11 0
15 -2 -11 8 0
15 -9 -12 -8 5 0
15 -12 -8 -3 0
15 4 -11 -6 0
15 -2 -1 8 0
15 6 -9 1 -10 0
1 1 0
1 -7 10 0
1 -13 0
1 10 0
1 -10 0
1 3 0
1 2 -6 0
1 6 -7 0
1 1 0
1 10 0
1 8 0
1 -10 -7 0
1 3 10 0
1 -4 5 0
