p wcnf 14 53 20
20 -4 10 0
20 -13 3 0
20 -5 1 0
20 7 -12 -9 -14 0
20 -7 -9 2 8 0
20 -11 -9 13 12 0
20 -7 5 13 1 0
20 13 -6 1 14 0
20 -3 -13 0
20 4 -9 8 0
20 6 11 -9 -13 0
20 -11 9 7 0
20 11 -3 13 10 0
20 -12 -1 -4 0
20 -12 -4 0
20 14 6 11 0
20 -4 8 0
20 11 -14 5 0
20 7 -14 -2 -1 0
20 2 -4 0
20 -13 -12 1 -4 0
20 14 -7 0
20 10 -9 14 12 0
20 -4 12 3 0
20 -3 -13 -4 0
20 -1 -5 0
20 8 3 -11 0
20 4 13 0
20 13 10 0
20 -13 9 -14 -10 0
20 10 5 0
20 14 -11 7 0
20 6 4 0
20 -14 -11 -12 -9 0
1 -11 0
1 -6 0
1 13 0
1 -2 -1 0
1 10 -3 0
1 3 0
1 -1 0
1 -7 12 0
1 5 0
1 5 -7 0
1 -13 0
1 4 6 0
1 -7 0
1 -1 0
1 13 -9 0
1 11 -10 0
1 8 0
1 9 0
1 5 9 0
