p wcnf 16 48 12
12 11 13 -16 0
12 2 -9 3 0
12 10 14 12 -13 0
12 3 -7 -13 0
12 14 7 10 0
12 5 -13 4 14 0
12 10 -4 0
12 -2 11 16 -7 0
12 15 5 11 3 0
12 3 14 -13 0
12 -3 7 -10 0
12 7 8 -2 0
12 -6 13 0
12 8 9 2 -4 0
12 1 -15 2 0
12 9 14 -15 0
12 -1 3 5 0
12 5 -3 -9 12 0
12 14 -2 7 0
12 -7 9 -13 0
12 -8 14 0
12 -8 -1 0
12 4 11 -12 -5 0
12 -9 -3 4 0
12 13 6 -7 0
12 4 5 3 -16 0
12 14 -8 3 16 0
12 -1 3 11 0
12 13 -15 3 -6 0
12 5 -3 0
12 13 11 15 0
12 14 10 9 5 0
12 1 16 13 0
12 -8 11 -2 0
12 9 -2 6 -15 0
12 7 9 4 5 0
12 -10 -15 -8 0
1 13 0
1 5 0
1 -9 0
1 -10 0
1 1 0
1 -1 -13 0
1 2 0
1 3 0
1 -11 0
1 5 0
1 13 0
