p wcnf 18 52 20
20 7 6 -18 0
20 3 -2 1 -5 0
20 12 -1 0
20 9 -5 -7 0
20 3 14 10 0
20 8 5 0
20 9 -11 0
20 18 8 11 0
20 5 4 0
20 -7 -9 0
20 -14 4 -16 -8 0
20 4 -3 15 0
20 -17 11 -4 0
20 -10 -17 11 0
20 15 -17 13 -5 0
20 2 12 -4 10 0
20 9 13 8 0
20 14 8 -15 0
20 -11 16 -15 5 0
20 -15 17 0
20 13 -12 0
20 6 -2 9 -15 0
20 14 5 0
20 -12 13 5 -18 0
20 2 -12 17 1 0
20 8 -10 3 4 0
20 -18 5 -9 0
20 6 16 -14 18 0
20 -15 18 -10 0
20 1 -11 0
20 -2 14 0
20 -4 11 1 0
20 -13 9 -4 17 0
1 9 0
1 14 0
1 15 5 0
1 9 0
1 11 0
1 -17 0
1 -1 10 0
1 17 -8 0
1 6 7 0
1 17 -6 0
1 -13 0
1 10 0
1 3 11 0
1 -13 0
1 -17 -11 0
1 -14 5 0
1 7 0
1 3 0
1 15 0
