p wcnf 20 66 19
19 -8 -19 6 15 0
19 -9 -12 -19 -15 0
19 -12 -9 18 -2 0
19 -13 -16 0
19 4 -3 0
19 -14 2 -16 0
19 -13 16 3 9 0
19 19 9 0
19 9 -16 0
19 -6 -12 10 0
19 6 18 0
19 -8 -20 0
19 7 14 4 -19 0
19 -16 2 0
19 -11 -3 -9 0
19 14 13 -15 0
19 -3 2 14 0
19 -14 -4 -1 -3 0
19 2 18 16 0
19 -8 -10 0
19 -11 3 0
19 -16 -5 1 0
19 15 -8 -5 0
19 1 19 10 -14 0
19 -8 -10 16 2 0
19 18 6 -8 -16 0
19 -4 19 0
19 -11 9 0
19 -1 -9 20 0
19 -12 -13 18 2 0
19 -19 6 11 -10 0
19 -9 4 -17 -7 0
19 17 11 -15 6 0
19 -11 4 0
19 -17 -11 4 19 0
19 12 16 0
19 12 9 0
19 6 -5 0
19 20 16 -2 1 0
19 -1 -17 3 -6 0
19 10 -8 0
19 18 14 5 7 0
19 8 -11 0
19 4 15 0
19 -13 -10 0
19 6 19 0
19 17 -1 0
19 -8 14 -6 0
1 7 -15 0
1 -19 0
1 -17 0
1 -4 17 0
1 -6 13 0
1 7 20 0
1 1 0
1 -13 0
1 19 18 0
1 19 0
1 11 0
1 11 0
1 19 -5 0
1 19 0
1 -1 0
1 14 -2 0
1 20 0
1 20 0
