p wcnf 14 54 18
18 -11 9 -12 5 0
18 6 7 11 0
18 -4 8 -11 6 0
18 -11 9 0
18 -9 6 1 0
18 -6 -3 7 0
18 -6 2 10 4 0
18 -11 -5 1 8 0
18 -1 11 -14 -4 0
18 -2 1 -13 -6 0
18 3 -8 0
18 6 5 -13 -1 0
18 9 -1 -8 -14 0
18 -10 -12 -5 0
18 6 -1 0
18 14 -11 0
18 6 -14 0
18 -10 13 0
18 1 6 2 -9 0
18 2 8 -7 0
18 7 3 6 9 0
18 8 7 -12 0
18 6 -8 -10 -12 0
18 -14 -12 -13 0
18 4 6 -10 8 0
18 -10 -13 3 8 0
18 -6 4 -8 0
18 3 -6 5 0
18 -3 9 -4 2 0
18 -6 -7 -11 0
18 14 -11 0
18 5 1 0
18 9 7 -2 -11 0
18 13 -12 0
18 -9 7 0
18 -10 4 0
18 -1 12 2 8 0
1 -3 -8 0
1 -13 8 0
1 10 0
1 3 0
1 -10 0
1 -5 0
1 9 0
1 11 0
1 10 -13 0
1 -13 0
1 10 5 0
1 -2 0
1 12 -1 0
1 11 0
1 -3 6 0
1 12 10 0
1 12 0
