p wcnf 17 51 13
13 3 11 0
13 -7 5 -16 -17 0
13 12 -4 0
13 -17 14 -11 0
13 16 -5 0
13 15 16 0
13 -8 -6 13 -7 0
13 11 -16 0
13 -16 15 0
13 -5 -9 12 -17 0
13 -16 11 -14 0
13 5 17 -2 8 0
13 9 -2 15 5 0
13 14 1 0
13 -9 13 3 -8 0
13 17 -9 8 0
13 -13 -2 -9 0
13 10 4 11 13 0
13 16 11 0
13 5 -13 10 0
13 -16 -5 0
13 -12 16 13 -6 0
13 7 -5 0
13 -9 -12 15 0
13 -3 13 -7 0
13 15 4 3 9 0
13 13 -14 0
13 -12 -9 0
13 -12 -16 0
13 10 7 4 0
13 -11 5 -2 6 0
13 16 -4 3 0
13 -12 -7 9 -14 0
13 15 17 -4 12 0
13 3 -17 -11 0
13 -15 -2 1 0
13 -2 -1 0
13 -7 -17 0
13 10 -13 11 0
1 8 -1 0
1 -12 0
1 -10 0
1 7 12 0
1 1 -9 0
1 -6 0
1 16 0
1 16 0
1 9 15 0
1 -11 17 0
1 -4 0
1 -15 0
