p wcnf 20 69 13
13 -15 19 -6 -3 0
13 -14 19 0
13 -8 6 19 -17 0
13 -6 18 -12 -19 0
13 -9 -12 -2 0
13 6 19 0
13 -2 16 12 7 0
13 14 -11 -3 0
13 14 -9 10 0
13 -3 12 13 0
13 -18 13 -19 -9 0
13 -15 9 10 0
13 -17 -13 -14 0
13 -14 -13 -19 -2 0
13 -11 7 -15 0
13 8 -1 -10 0
13 -7 -18 -14 10 0
13 4 -16 -19 0
13 -11 -19 8 5 0
13 4 -7 0
13 -11 -6 -9 -4 0
13 -4 -2 0
13 -13 18 -15 0
13 8 14 18 0
13 -15 -9 0
13 -2 -16 0
13 -2 8 0
13 -16 14 0
13 12 3 20 0
13 11 -8 9 0
13 -6 -5 0
13 -8 19 16 0
13 18 19 0
13 6 -11 2 0
13 17 -8 0
13 -5 -14 -3 0
13 -7 2 10 0
13 19 4 0
13 -14 17 15 4 0
13 13 -3 -5 -9 0
13 2 -6 -4 0
13 -10 -17 5 0
13 -6 -15 -17 0
13 -15 -8 -7 -5 0
13 -5 8 0
13 3 8 0
13 7 -11 0
13 -18 -20 0
13 -19 -15 -8 6 0
13 -3 -2 20 0
13 -4 1 0
13 17 3 19 0
13 1 5 0
13 -7 -11 0
13 -15 18 -4 0
13 -5 -3 9 0
13 -2 12 0
1 -6 0
1 -2 12 0
1 13 0
1 11 16 0
1 7 19 0
1 9 0
1 -1 0
1 15 0
1 -3 0
1 -8 0
1 -16 0
1 13 -11 0
