p wcnf 19 44 17
17 2 -5 0
17 -6 -13 -4 0
17 -13 16 11 -9 0
17 -3 -2 0
17 -7 18 0
17 1 13 0
17 19 10 1 0
17 4 1 0
17 -1 -2 12 -6 0
17 -9 -4 -6 7 0
17 -4 16 -13 5 0
17 -11 -15 0
17 16 -3 0
17 8 5 16 0
17 11 -7 -3 0
17 -16 9 0
17 -16 -5 14 11 0
17 19 -16 -7 18 0
17 -9 4 0
17 -4 6 18 -19 0
17 -10 15 0
17 -11 15 19 -8 0
17 -3 -13 0
17 13 1 -8 12 0
17 -16 19 2 0
17 -13 -3 10 -4 0
17 -8 14 0
17 -1 15 -10 0
1 19 0
1 4 0
1 -17 0
1 12 -17 0
1 -19 0
1 -8 0
1 -12 10 0
1 -5 0
1 -1 0
1 10 0
1 3 0
1 -17 0
1 -15 0
1 6 0
1 -18 0
1 8 16 0
