p wcnf 11 47 21
21 -3 8 0
21 9 -1 -8 0
21 2 1 0
21 11 -9 7 0
21 9 -1 6 0
21 3 -5 -7 11 0
21 6 -1 -8 0
21 -4 9 6 11 0
21 -6 10 -3 9 0
21 -9 6 0
21 -7 -5 -6 0
21 -6 -4 -8 -2 0
21 -3 2 10 -8 0
21 4 1 5 9 0
21 -10 8 2 9 0
21 4 5 -9 6 0
21 -10 11 3 0
21 -4 -10 2 0
21 9 2 0
21 -11 -9 0
21 6 9 4 0
21 2 -3 5 0
21 3 1 5 6 0
21 3 -8 -7 0
21 -9 7 2 0
21 -2 9 -5 0
21 -10 -6 0
1 6 -10 0
1 -8 6 0
1 11 3 0
1 -7 0
1 1 0
1 -10 0
1 2 -8 0
1 -7 0
1 -4 0
1 8 0
1 4 0
1 4 8 0
1 -3 6 0
1 -11 0
1 10 0
1 8 0
1 -7 -1 0
1 4 -10 0
1 -11 0
1 1 -7 0
