p wcnf 20 53 19
19 -3 -1 -16 0
19 -14 -5 0
19 -20 1 4 -16 0
19 -15 7 16 2 0
19 -13 19 11 0
19 3 -12 0
19 -2 1 18 10 0
19 18 19 -12 0
19 -17 -3 0
19 -10 -20 -15 0
19 3 12 1 0
19 15 12 -11 0
19 20 7 3 0
19 -15 14 -4 0
19 10 -5 0
19 -1 -11 7 0
19 -18 14 -7 0
19 6 10 -9 0
19 -3 -11 -18 0
19 8 17 13 0
19 -3 -20 0
19 14 6 -15 -17 0
19 -17 18 -19 0
19 6 17 -20 -10 0
19 -19 -11 -14 -18 0
19 17 5 0
19 14 16 0
19 -16 8 18 0
19 3 13 -1 -8 0
19 13 6 11 -19 0
19 4 8 0
19 2 -15 11 -7 0
19 -15 -7 11 -5 0
19 -12 2 15 0
19 20 7 17 -14 0
1 -8 0
1 -19 11 0
1 7 0
1 -4 0
1 -7 -17 0
1 12 0
1 -1 0
1 -18 0
1 18 7 0
1 -2 0
1 18 0
1 7 0
1 -8 0
1 -13 0
1 11 0
1 -18 0
1 -5 0
1 -11 0
