p wcnf 16 51 20
20 15 3 -14 7 0
20 6 -13 -1 -11 0
20 -4 5 -9 0
20 10 -3 0
20 6 13 12 0
20 -11 -6 -9 0
20 -12 -13 0
20 -1 -5 0
20 6 15 -9 8 0
20 15 7 9 13 0
20 -2 -13 3 -1 0
20 -3 6 -7 0
20 -7 14 5 -2 0
20 -6 9 3 0
20 11 -10 1 -5 0
20 -7 -14 0
20 -16 1 2 0
20 3 12 -16 -13 0
20 9 2 -14 -15 0
20 -8 -4 -11 10 0
20 10 4 -5 0
20 -1 -15 0
20 -3 11 2 5 0
20 -7 12 16 -6 0
20 -12 5 8 -13 0
20 -14 10 0
20 -4 -3 6 0
20 14 -1 12 7 0
20 -1 -13 0
20 -9 4 0
20 -7 -14 16 -6 0
20 -14 10 -2 7 0
1 -7 -1 0
1 2 0
1 -9 0
1 11 0
1 -15 0
1 -7 0
1 16 0
1 -2 -3 0
1 -10 0
1 -4 0
1 -11 -6 0
1 2 0
1 -9 1 0
1 14 0
1 -1 0
1 14 0
1 4 0
1 3 -10 0
1 9 0
