p wcnf 15 44 10
10 -1 8 -5 0
10 13 -5 -11 -6 0
10 6 12 0
10 1 -2 -6 -9 0
10 -14 2 11 0
10 3 -5 -13 -6 0
10 -12 14 -8 -10 0
10 -9 1 4 11 0
10 -5 14 -3 0
10 10 6 4 0
10 3 -13 8 0
10 7 8 15 -4 0
10 -11 -14 0
10 -10 -8 -11 0
10 -11 -6 0
10 -10 -11 0
10 -6 13 9 2 0
10 -7 9 14 -4 0
10 15 -14 0
10 11 -1 0
10 2 -14 0
10 -9 -3 -4 0
10 9 7 6 14 0
10 -7 -4 0
10 14 -8 0
10 6 9 0
10 13 -14 4 -8 0
10 15 -10 -7 9 0
10 -8 11 2 10 0
10 4 14 9 0
10 -12 -14 11 0
10 -2 1 -11 -6 0
10 -15 -13 0
10 -14 3 0
10 -6 15 -13 8 0
1 -12 0
1 -9 11 0
1 12 0
1 -8 -5 0
1 1 0
1 8 -2 0
1 8 0
1 -11 0
1 -14 -5 0
