p wcnf 15 45 16
16 7 6 0
16 -15 11 0
16 15 4 -11 0
16 -9 -14 2 5 0
16 3 -13 -6 -5 0
16 9 -3 0
16 -5 -12 13 0
16 7 -2 -11 14 0
16 -11 14 0
16 8 -7 -9 3 0
16 1 15 0
16 5 -2 -13 -1 0
16 3 5 -4 0
16 -5 2 -15 6 0
16 13 -1 -11 0
16 -5 14 0
16 -3 -1 14 -6 0
16 9 -12 6 10 0
16 -9 11 12 0
16 9 -12 0
16 -3 11 6 0
16 -1 6 0
16 -4 11 3 -9 0
16 1 -13 9 -4 0
16 12 -6 0
16 13 -5 0
16 -6 -3 2 -4 0
16 -12 4 10 0
16 4 5 -12 -1 0
16 -3 -13 -10 0
1 8 1 0
1 5 0
1 1 0
1 -2 0
1 1 -6 0
1 6 0
1 10 -4 0
1 1 0
1 -5 0
1 8 14 0
1 -6 0
1 -2 -12 0
1 7 0
1 -2 1 0
1 -6 0
