p wcnf 20 61 17
17 3 8 0
17 -12 -11 4 -15 0
17 -16 -10 -4 -9 0
17 6 14 7 -19 0
17 -12 16 0
17 -11 -2 9 0
17 3 9 -13 19 0
17 -17 13 0
17 -18 20 9 0
17 -20 -13 -2 6 0
17 -19 -6 -18 17 0
17 -4 -3 5 0
17 3 -18 0
17 19 1 -20 0
17 -9 14 -16 -19 0
17 20 -7 15 0
17 7 14 -15 0
17 -6 -9 0
17 -6 7 0
17 -3 -10 0
17 7 -17 -12 0
17 -8 -16 18 0
17 18 -20 -13 11 0
17 20 2 10 0
17 -20 -3 0
17 -4 -11 0
17 2 -15 0
17 13 -1 0
17 9 4 -1 0
17 -8 -2 13 0
17 -9 -6 5 -12 0
17 -15 -6 3 0
17 -15 14 -13 0
17 3 -17 -6 0
17 13 -17 3 0
17 -7 4 -19 0
17 18 19 15 -1 0
17 17 4 13 0
17 -11 12 20 8 0
17 -11 8 -6 0
17 -2 -17 0
17 3 -7 15 0
17 11 -10 -18 0
17 20 -1 0
17 17 -2 -10 0
1 6 0
1 11 -18 0
1 4 0
1 6 0
1 9 -3 0
1 -8 0
1 -3 0
1 11 0
1 7 -5 0
1 -10 0
1 3 0
1 14 0
1 -20 0
1 18 0
1 4 7 0
1 1 0
