p wcnf 20 53 14
14 -19 6 13 -5 0
14 -20 12 -18 4 0
14 7 -6 0
14 4 10 -15 0
14 -5 -13 15 3 0
14 16 -9 0
14 -2 19 18 -1 0
14 6 -12 9 0
14 -11 13 0
14 -11 -2 0
14 2 8 -5 0
14 8 -11 -9 0
14 -17 -18 -2 0
14 9 4 0
14 20 19 0
14 -12 14 -5 0
14 12 1 -3 0
14 11 -10 1 -9 0
14 -9 -12 0
14 -7 13 -14 0
14 -13 20 0
14 -13 -18 0
14 3 15 0
14 -14 -3 10 13 0
14 8 -4 16 0
14 15 -8 6 0
14 5 -11 -10 -15 0
14 -18 11 14 -4 0
14 -4 -16 10 -2 0
14 -15 14 -18 0
14 20 3 -19 -10 0
14 -1 -14 0
14 -4 -2 18 -5 0
14 4 -15 -11 13 0
14 -12 -17 0
14 13 -20 -7 0
14 5 -15 11 0
14 7 -14 0
14 -15 -7 16 19 0
14 -17 11 15 -18 0
1 17 7 0
1 6 -13 0
1 13 0
1 -19 4 0
1 9 0
1 18 0
1 1 0
1 -19 0
1 11 14 0
1 -6 0
1 20 0
1 -9 0
1 4 -13 0
