p wcnf 20 56 17
17 10 -20 -8 -7 0
17 10 15 0
17 -10 14 -5 -15 0
17 -14 9 0
17 6 -7 0
17 12 9 -20 -15 0
17 3 7 14 1 0
17 -5 -17 10 8 0
17 -6 -8 0
17 2 -7 -1 0
17 -5 4 -2 9 0
17 -10 -9 8 0
17 19 4 -3 -10 0
17 -2 8 0
17 19 14 -6 -17 0
17 6 4 17 -2 0
17 -13 16 -20 2 0
17 -13 -4 7 0
17 15 -7 -6 0
17 17 19 -12 9 0
17 8 6 -1 -3 0
17 1 -4 6 0
17 -19 9 -18 14 0
17 13 2 -5 0
17 -13 -20 -15 0
17 20 16 -1 0
17 12 -6 -8 0
17 -1 12 8 13 0
17 -7 -15 -20 0
17 -8 -4 19 3 0
17 4 11 1 0
17 11 8 0
17 8 -18 -14 12 0
17 -5 -1 0
17 -10 -12 -20 0
17 -11 -19 9 0
17 11 -1 9 -3 0
17 7 3 -5 0
17 -10 -1 14 0
17 -20 13 5 0
1 12 0
1 3 -20 0
1 20 0
1 -15 0
1 4 0
1 -7 12 0
1 10 6 0
1 -3 5 0
1 20 0
1 20 -2 0
1 20 0
1 7 0
1 20 0
1 -1 0
1 -9 -17 0
1 18 0
