p wcnf 13 53 21
21 4 7 0
21 -5 7 0
21 -10 12 9 0
21 -8 -10 2 0
21 -4 5 10 0
21 1 -8 0
21 6 3 0
21 -11 4 -7 2 0
21 -5 -7 4 0
21 8 7 2 0
21 -1 -12 0
21 5 9 11 -6 0
21 -8 -2 12 0
21 -8 6 -7 -13 0
21 -3 11 -10 12 0
21 3 1 -4 -6 0
21 2 5 4 -12 0
21 7 -1 0
21 9 -4 -2 12 0
21 9 -1 12 5 0
21 5 -8 11 0
21 -5 4 0
21 11 10 7 -13 0
21 9 -11 0
21 -10 -5 9 0
21 13 -11 -7 0
21 6 -3 8 0
21 -9 5 10 13 0
21 -7 3 11 0
21 8 -2 -3 0
21 12 -11 0
21 10 -12 1 0
21 1 -13 11 -12 0
1 9 0
1 10 4 0
1 7 0
1 11 0
1 10 0
1 -12 0
1 3 0
1 -8 0
1 4 0
1 4 0
1 -9 0
1 4 13 0
1 6 0
1 -3 0
1 11 0
1 5 -4 0
1 4 0
1 10 0
1 -5 0
1 -8 0
