p wcnf 18 62 16
16 2 -6 4 0
16 -18 -17 0
16 13 4 7 -14 0
16 -1 11 -4 0
16 -18 15 0
16 3 -2 0
16 6 16 0
16 -14 4 0
16 -14 15 0
16 1 -8 -9 -13 0
16 18 10 4 0
16 16 -18 0
16 -4 2 16 0
16 -5 15 0
16 1 8 0
16 -8 -10 5 0
16 16 9 0
16 -15 17 -12 0
16 11 -4 6 0
16 -8 -7 11 0
16 8 2 0
16 -8 4 1 13 0
16 -1 6 -12 -11 0
16 17 -18 -3 0
16 -10 -16 -6 0
16 5 -15 6 0
16 -17 12 -15 0
16 -9 14 0
16 -3 -14 1 0
16 11 -9 0
16 17 8 14 0
16 16 1 0
16 -2 -4 -15 0
16 18 -4 -7 10 0
16 2 5 0
16 -7 -16 2 0
16 1 -16 -3 0
16 9 -5 -17 11 0
16 -9 12 10 -11 0
16 -1 2 -17 0
16 -13 -8 1 0
16 -17 -7 -15 -4 0
16 3 -14 0
16 11 -6 8 -7 0
16 -11 7 -16 -9 0
16 14 -2 0
16 17 9 -12 2 0
1 4 0
1 3 0
1 17 0
1 1 0
1 2 -8 0
1 13 17 0
1 -17 0
1 -17 15 0
1 -9 0
1 -1 -13 0
1 5 0
1 3 0
1 18 0
1 -13 0
1 6 4 0
