p wcnf 11 40 10
10 4 -5 -9 10 0
10 -3 -9 -10 0
10 3 10 0
10 3 7 -9 0
10 -5 10 -8 11 0
10 -1 7 0
10 -8 -1 9 0
10 2 -11 0
10 -5 4 0
10 -3 -2 -1 4 0
10 10 7 9 0
10 -6 -1 7 4 0
10 9 2 -10 6 0
10 -10 -2 -1 0
10 -11 5 -7 0
10 8 -10 3 0
10 -1 -11 10 0
10 1 4 10 0
10 1 -8 -2 4 0
10 11 9 7 0
10 -2 -11 -4 0
10 7 1 -4 0
10 -10 -4 5 0
10 -5 1 6 0
10 6 -9 10 3 0
10 -10 -9 11 -2 0
10 -7 2 1 0
10 -8 -11 9 -10 0
10 7 10 0
10 9 -10 0
10 9 -2 6 -3 0
1 8 -6 0
1 -8 0
1 11 0
1 10 0
1 7 5 0
1 8 4 0
1 -1 0
1 -9 -4 0
1 5 0
