p wcnf 13 51 21
21 10 6 -1 0
21 -2 4 -11 7 0
21 12 -8 -7 1 0
21 -12 9 11 0
21 2 5 -10 6 0
21 7 -10 -1 0
21 -10 -8 2 3 0
21 -9 -12 -11 0
21 -3 -11 6 0
21 -2 -10 -1 0
21 -13 6 0
21 6 7 9 -2 0
21 9 2 -6 -10 0
21 -13 12 10 -11 0
21 4 5 10 0
21 -6 -9 -7 -5 0
21 -11 -7 -3 -12 0
21 2 -6 -10 -5 0
21 -2 -3 13 0
21 -12 1 0
21 7 -2 6 0
21 -7 -8 -6 -4 0
21 5 -11 13 -12 0
21 11 -8 13 0
21 12 1 11 0
21 -7 4 10 3 0
21 12 6 5 -1 0
21 10 4 3 0
21 -4 -1 0
21 -9 -1 8 0
21 -2 -7 9 0
1 -6 -3 0
1 3 0
1 6 0
1 -10 0
1 -10 0
1 6 0
1 -2 0
1 -10 0
1 7 0
1 -8 0
1 -1 7 0
1 -5 -1 0
1 1 0
1 -2 0
1 3 10 0
1 -4 0
1 12 -8 0
1 3 0
1 -11 0
1 7 0
