p wcnf 17 45 20
20 -9 8 -15 6 0
20 16 -9 3 0
20 2 -3 0
20 -4 -7 -12 0
20 -12 5 0
20 -12 17 6 0
20 -16 14 0
20 -12 -16 -10 0
20 15 9 0
20 -4 8 9 0
20 -10 -8 -2 11 0
20 17 -1 -5 0
20 10 12 0
20 2 -9 0
20 14 -12 -7 -8 0
20 -1 -7 0
20 11 -1 7 0
20 14 -17 0
20 -1 -5 -15 0
20 -10 13 11 5 0
20 -7 8 0
20 15 -6 -14 0
20 -2 1 10 0
20 -13 10 0
20 16 10 -3 -9 0
20 16 -14 0
1 11 0
1 -13 -12 0
1 -6 -12 0
1 7 0
1 -16 0
1 4 9 0
1 -12 0
1 15 0
1 9 0
1 12 -15 0
1 13 0
1 6 0
1 -13 0
1 14 -11 0
1 -7 0
1 11 0
1 4 -5 0
1 -5 0
1 -15 0
