p wcnf 14 45 20
20 12 4 10 0
20 6 2 -3 0
20 8 14 0
20 -3 8 11 -14 0
20 13 -5 0
20 -11 -3 0
20 5 11 9 -12 0
20 -5 2 9 0
20 -2 -14 0
20 -6 1 -2 0
20 -14 3 7 0
20 -3 7 9 8 0
20 -5 -8 -9 11 0
20 -6 3 0
20 -11 1 0
20 13 -2 0
20 -9 12 0
20 -12 10 0
20 10 5 -14 1 0
20 -9 -2 7 0
20 11 -7 -2 12 0
20 8 -11 7 -14 0
20 -5 6 14 -7 0
20 -11 14 9 0
20 11 4 -2 -8 0
20 -5 3 0
1 -6 0
1 1 0
1 8 9 0
1 11 0
1 7 0
1 -6 -2 0
1 5 11 0
1 -1 0
1 -3 0
1 -9 0
1 10 -13 0
1 3 0
1 -6 -1 0
1 8 0
1 -14 0
1 10 -13 0
1 -6 0
1 -6 7 0
1 -12 -8 0
