p wcnf 10 46 17
17 7 -5 1 2 0
17 4 -1 -6 9 0
17 -2 4 3 -1 0
17 -9 -7 0
17 -9 8 -10 0
17 -7 8 2 0
17 7 6 2 0
17 -10 6 2 0
17 -4 10 0
17 -2 -6 4 0
17 10 -2 0
17 7 -3 2 -1 0
17 3 -5 -1 6 0
17 6 1 -5 -10 0
17 -5 2 0
17 8 -7 5 -3 0
17 -7 1 2 9 0
17 -5 -10 0
17 3 5 0
17 -8 7 0
17 5 10 2 -4 0
17 3 1 -10 0
17 10 -5 2 0
17 1 7 0
17 -5 10 3 -1 0
17 -6 5 3 -2 0
17 7 8 0
17 -9 -1 -10 0
17 -1 5 7 0
17 -5 -6 0
1 -10 0
1 -7 -6 0
1 -9 0
1 -5 0
1 -3 0
1 -6 0
1 2 0
1 10 0
1 8 0
1 1 0
1 -1 6 0
1 -8 0
1 -1 2 0
1 -8 -10 0
1 1 -8 0
1 -10 4 0
