p wcnf 13 47 20
20 -10 9 -4 -3 0
20 13 5 -4 0
20 -11 2 5 -13 0
20 -9 3 -11 0
20 -3 -2 -6 0
20 -11 -1 0
20 8 -1 -9 3 0
20 3 12 -1 0
20 -9 12 -13 0
20 -7 5 -10 -6 0
20 -11 2 -6 10 0
20 1 -8 0
20 11 9 -6 -8 0
20 5 -1 0
20 10 -11 -9 0
20 1 -8 -4 -7 0
20 -6 3 0
20 6 11 0
20 -3 6 0
20 2 -7 0
20 -7 -8 -4 0
20 -12 -13 0
20 11 -6 -4 0
20 -12 -1 -4 0
20 5 -13 -8 0
20 -3 11 0
20 2 10 -11 0
20 7 -4 0
1 3 0
1 -10 0
1 -11 -8 0
1 7 0
1 -11 0
1 11 -8 0
1 3 11 0
1 -1 0
1 12 0
1 2 6 0
1 12 0
1 -7 0
1 -2 -12 0
1 9 7 0
1 -11 0
1 11 0
1 9 0
1 2 0
1 -12 0
