p wcnf 19 41 13
13 -10 -11 -6 -14 0
13 -3 4 0
13 -19 8 17 -6 0
13 -1 -9 -6 0
13 6 8 0
13 -17 10 -5 0
13 -15 -10 0
13 14 -1 10 0
13 -4 10 14 0
13 -10 -2 6 -15 0
13 4 8 0
13 3 16 -13 0
13 -10 -1 -19 0
13 19 18 0
13 -5 1 0
13 -4 -3 16 0
13 13 -14 -4 0
13 18 -1 2 0
13 -16 7 0
13 -3 9 15 19 0
13 -6 -19 15 -11 0
13 -5 8 1 0
13 6 17 5 -9 0
13 11 16 8 15 0
13 1 18 17 0
13 15 -11 0
13 12 1 -8 -15 0
13 -8 7 0
13 -14 15 11 0
1 -8 -15 0
1 11 0
1 9 0
1 -7 0
1 -10 -12 0
1 -4 0
1 6 0
1 -1 -14 0
1 -19 0
1 -14 0
1 -2 0
1 -14 0
