p wcnf 19 41 13
13 -12 18 -1 19 0
13 5 11 0
13 -6 -10 19 0
13 -5 -9 10 0
13 10 -12 -16 0
13 -19 -17 -3 0
13 -19 13 4 2 0
13 10 7 -14 4 0
13 -16 5 0
13 15 8 0
13 6 16 -3 0
13 -18 -2 0
13 2 13 17 19 0
13 5 4 15 3 0
13 -2 14 -12 17 0
13 -16 -15 -5 13 0
13 8 -14 -1 0
13 -13 17 -6 3 0
13 9 12 0
13 6 -13 0
13 3 8 0
13 7 -9 -6 -17 0
13 7 -3 0
13 -8 11 3 13 0
13 -13 15 0
13 15 -12 -16 0
13 -5 13 -1 -4 0
13 -5 10 -8 0
13 3 9 -15 -13 0
1 16 0
1 3 0
1 4 0
1 18 0
1 13 0
1 -4 -18 0
1 -7 0
1 -14 0
1 -15 0
1 -19 0
1 5 0
1 -10 -7 0
