p wcnf 17 44 16
16 -4 7 16 0
16 1 5 0
16 7 9 12 17 0
16 11 -17 1 -2 0
16 17 7 0
16 -1 -17 2 0
16 -2 3 -17 -15 0
16 16 15 7 -5 0
16 13 -10 0
16 -14 12 0
16 -13 12 16 0
16 -11 -15 -8 0
16 5 -10 0
16 16 -8 12 -7 0
16 -1 -15 0
16 -1 -12 0
16 17 13 1 0
16 14 -7 5 10 0
16 2 -5 -3 -9 0
16 -12 7 0
16 12 9 7 1 0
16 -8 14 -12 0
16 -3 -9 0
16 -16 3 6 -5 0
16 -8 -12 0
16 17 -10 -8 -13 0
16 16 6 0
16 10 7 -12 1 0
16 12 -13 -6 0
1 -17 -9 0
1 14 -12 0
1 6 0
1 8 -15 0
1 6 0
1 9 -6 0
1 10 0
1 4 0
1 -5 0
1 7 0
1 17 -7 0
1 9 0
1 -17 -1 0
1 16 15 0
1 -16 0
