p wcnf 11 47 20
20 4 -3 -9 -1 0
20 4 -6 -5 0
20 -3 -1 0
20 -7 5 10 11 0
20 2 6 -8 0
20 -11 3 6 -9 0
20 2 9 6 -11 0
20 8 3 -10 0
20 -2 11 0
20 -9 4 7 0
20 2 11 0
20 -10 -8 0
20 10 -9 -4 0
20 5 -8 11 -2 0
20 5 -1 -9 7 0
20 -8 6 0
20 -9 -8 0
20 -5 -9 7 0
20 -8 7 0
20 1 -7 -5 0
20 -8 -1 3 0
20 -6 -11 4 9 0
20 -7 11 5 0
20 -2 8 0
20 -8 -11 1 -10 0
20 -1 -9 -11 0
20 9 -2 1 0
20 11 -1 0
1 -6 2 0
1 2 0
1 5 0
1 -4 8 0
1 10 0
1 -11 0
1 -4 0
1 -9 0
1 10 0
1 1 -2 0
1 11 -10 0
1 5 0
1 -2 0
1 4 0
1 -5 0
1 7 0
1 -11 7 0
1 9 0
1 -10 0
