p wcnf 15 44 7
7 -12 14 -4 0
7 10 15 -11 0
7 -11 -3 0
7 -11 -5 -6 2 0
7 -1 -6 15 7 0
7 -11 -4 -6 0
7 -13 14 1 0
7 14 2 -6 4 0
7 -12 2 -7 -10 0
7 14 -4 0
7 9 15 10 -12 0
7 8 11 -14 0
7 -1 -15 0
7 14 -4 -6 9 0
7 -10 7 0
7 10 -13 15 0
7 2 6 -9 5 0
7 -3 1 -15 -8 0
7 11 5 2 -10 0
7 5 -3 12 -7 0
7 -4 8 0
7 15 -11 -2 0
7 -13 8 -2 0
7 -6 15 -1 -8 0
7 -15 -13 -7 6 0
7 13 -9 0
7 -7 13 0
7 15 10 0
7 -10 3 1 7 0
7 5 6 0
7 -2 -6 0
7 2 -11 0
7 -11 5 1 0
7 1 12 0
7 8 -2 -12 1 0
7 6 -9 2 0
7 -2 -8 5 0
7 -14 -9 -5 -1 0
1 14 0
1 11 0
1 -5 0
1 -13 0
1 -13 -7 0
1 -14 7 0
