p wcnf 18 64 17
17 7 -1 0
17 18 -5 0
17 1 18 5 -17 0
17 -8 17 2 0
17 18 -16 0
17 -4 -5 -9 0
17 -4 14 1 -7 0
17 3 9 0
17 12 -16 11 0
17 -8 -5 17 -11 0
17 -9 -13 -15 1 0
17 12 11 -16 0
17 -14 -17 0
17 -7 -3 0
17 -14 9 17 0
17 17 10 2 0
17 -4 -9 18 1 0
17 -14 8 0
17 -13 5 10 0
17 -5 6 -14 -4 0
17 10 6 4 1 0
17 -1 15 0
17 6 -7 -10 14 0
17 -2 11 3 0
17 -9 11 12 7 0
17 4 -1 13 -18 0
17 -15 -11 0
17 5 14 9 0
17 13 3 -5 0
17 -15 -7 3 0
17 11 9 -13 15 0
17 8 -18 -11 0
17 1 -7 0
17 -8 11 15 -6 0
17 6 -13 0
17 3 -17 -4 0
17 8 -6 12 -15 0
17 14 -8 -2 0
17 11 -5 -8 0
17 17 -4 0
17 9 -4 17 0
17 -12 -13 -16 0
17 2 -18 3 -11 0
17 6 -18 0
17 -8 -14 16 4 0
17 7 15 17 10 0
17 -9 -5 8 1 0
17 16 -3 0
1 4 -8 0
1 -18 12 0
1 16 0
1 8 0
1 -12 2 0
1 -13 0
1 -3 0
1 -13 0
1 1 0
1 18 0
1 -15 0
1 3 0
1 -4 -14 0
1 -13 0
1 11 12 0
1 -15 -11 0
