p wcnf 14 40 10
10 1 -11 -12 0
10 1 11 -10 -14 0
10 -14 -8 0
10 12 5 4 11 0
10 -11 -3 0
10 -2 -14 3 11 0
10 -14 -13 -9 0
10 -2 11 -7 5 0
10 -4 -12 3 5 0
10 -14 8 -10 0
10 13 -1 4 0
10 -11 -9 -5 -6 0
10 10 5 -2 -13 0
10 -13 -2 7 0
10 10 -14 -2 9 0
10 -6 -9 -12 13 0
10 -14 13 0
10 -8 -12 0
10 12 1 4 0
10 -7 -4 0
10 2 -10 -3 7 0
10 -4 10 -12 0
10 14 -13 7 0
10 4 -2 -1 0
10 4 12 9 -10 0
10 4 11 2 -13 0
10 -7 -3 -12 0
10 -12 5 4 -8 0
10 -1 -4 0
10 -5 11 -6 0
10 -8 -2 0
1 14 0
1 3 0
1 10 0
1 -13 0
1 6 0
1 -7 14 0
1 5 0
1 -2 0
1 7 0
