p wcnf 18 55 16
16 -4 12 9 0
16 9 3 14 16 0
16 4 -7 0
16 11 9 6 -5 0
16 -5 -17 0
16 -17 18 0
16 5 -16 -14 0
16 -18 12 6 0
16 -2 -7 -5 0
16 10 11 -8 -4 0
16 7 4 0
16 5 13 9 -18 0
16 12 6 0
16 -12 -14 -2 -6 0
16 -16 2 -1 -6 0
16 -17 6 -10 -12 0
16 5 18 0
16 5 17 0
16 -11 1 -9 0
16 -11 -8 -4 -13 0
16 -7 -9 -2 0
16 18 4 0
16 15 -6 0
16 5 1 17 0
16 16 -9 0
16 -18 -11 0
16 -12 13 -18 0
16 9 2 8 0
16 17 12 -15 7 0
16 -17 -7 6 0
16 -13 6 4 5 0
16 11 14 3 -17 0
16 4 6 -17 0
16 -17 7 10 -8 0
16 -14 8 11 16 0
16 -8 3 -11 -12 0
16 -14 -13 4 0
16 15 9 -14 2 0
16 2 17 0
16 -1 12 0
1 -11 0
1 17 7 0
1 -2 17 0
1 -9 0
1 9 -17 0
1 14 -13 0
1 17 0
1 -1 0
1 13 0
1 -11 0
1 9 0
1 18 -4 0
1 -8 0
1 -5 0
1 18 15 0
