p wcnf 17 62 13
13 7 -3 0
13 16 -12 15 0
13 -8 11 9 0
13 -1 6 16 13 0
13 11 -1 0
13 13 -4 -11 0
13 -12 13 -6 0
13 11 7 -2 3 0
13 -7 8 -16 -14 0
13 17 2 7 -4 0
13 -13 15 -4 0
13 -12 14 3 0
13 -14 3 -8 13 0
13 6 11 8 -1 0
13 3 -14 -6 0
13 -13 -7 0
13 -5 -14 -11 0
13 2 3 7 -10 0
13 -16 8 14 4 0
13 -14 -10 -3 -1 0
13 -1 9 -12 0
13 -16 17 -3 0
13 -17 2 -5 0
13 -17 -4 0
13 -8 -11 6 0
13 15 -8 -17 -10 0
13 11 4 9 -13 0
13 6 -3 7 -5 0
13 1 7 0
13 16 12 -4 1 0
13 9 -13 3 -15 0
13 -15 1 -5 0
13 2 8 10 6 0
13 9 -5 6 0
13 -13 -6 3 0
13 7 8 0
13 4 5 -3 0
13 9 -11 17 0
13 -2 9 5 0
13 5 10 7 0
13 -3 -7 -1 0
13 -17 -8 5 0
13 -3 -12 5 10 0
13 -12 4 0
13 -16 -5 0
13 1 14 -4 15 0
13 13 17 16 0
13 13 2 -12 0
13 17 -9 0
13 -15 -9 0
1 -14 -13 0
1 -2 5 0
1 14 0
1 -5 13 0
1 -17 0
1 7 5 0
1 -12 14 0
1 14 2 0
1 13 0
1 -15 0
1 -2 -10 0
1 12 5 0
