p wcnf 13 54 20
20 5 -1 -7 -6 0
20 -13 5 0
20 -2 4 1 -3 0
20 1 -2 0
20 -8 7 -2 0
20 -5 -2 0
20 4 -7 0
20 13 -1 -7 0
20 -8 3 -4 0
20 -7 9 -13 4 0
20 -1 12 -7 0
20 -1 -5 0
20 -6 -9 5 0
20 -12 -11 0
20 -1 -4 12 10 0
20 8 7 12 4 0
20 -3 -5 0
20 5 -12 0
20 -4 -8 1 -13 0
20 4 -11 0
20 13 11 0
20 -10 -8 -9 0
20 -8 11 10 13 0
20 3 7 -12 0
20 2 7 0
20 3 -13 8 -1 0
20 -9 8 0
20 6 -3 -5 2 0
20 11 -12 0
20 -1 -13 11 0
20 7 9 0
20 -5 7 9 -13 0
20 6 -2 0
20 -1 -3 4 0
20 -5 -1 11 8 0
1 11 2 0
1 2 3 0
1 6 0
1 9 0
1 -9 0
1 -3 0
1 9 0
1 -13 0
1 -8 12 0
1 7 0
1 2 -9 0
1 -6 2 0
1 -4 0
1 -7 0
1 -2 12 0
1 8 0
1 7 0
1 4 0
1 5 0
