p wcnf 20 51 12
12 3 -13 5 11 0
12 -2 -11 4 9 0
12 15 8 1 9 0
12 -14 18 7 -6 0
12 16 15 -13 0
12 17 -12 -16 -11 0
12 7 -8 -10 -12 0
12 12 8 6 -17 0
12 1 -8 -19 -11 0
12 14 -16 -20 15 0
12 -17 -7 16 0
12 -4 13 0
12 -10 -17 0
12 -1 -4 0
12 -14 -2 0
12 4 18 0
12 -9 17 0
12 4 -12 -5 0
12 -12 -10 0
12 -15 -17 0
12 -1 -5 10 0
12 -12 9 19 2 0
12 1 -16 12 0
12 -9 14 0
12 7 -16 12 0
12 14 10 0
12 -4 10 -8 0
12 16 14 -3 0
12 19 12 -15 -14 0
12 15 9 2 0
12 2 -3 -14 -13 0
12 -19 -8 10 -18 0
12 -1 -17 -6 0
12 18 -17 0
12 3 18 -13 0
12 -2 7 0
12 5 -7 -12 0
12 -9 -12 15 0
12 -1 -17 6 -12 0
12 15 8 -1 0
1 3 19 0
1 -7 0
1 19 -6 0
1 13 0
1 17 -12 0
1 3 6 0
1 -11 0
1 -20 0
1 -2 -8 0
1 17 -5 0
1 16 0
