p wcnf 13 44 17
17 -5 -13 1 -4 0
17 7 11 -4 0
17 -11 13 6 0
17 13 -8 -4 7 0
17 11 3 2 5 0
17 -6 -8 -13 2 0
17 6 2 0
17 6 3 12 0
17 -7 -12 -3 -2 0
17 -1 8 -2 0
17 9 -10 12 0
17 -10 12 0
17 -1 5 0
17 6 -8 -13 0
17 10 12 0
17 -13 -2 4 0
17 -6 -4 0
17 5 -2 -10 0
17 2 5 10 8 0
17 2 11 -1 7 0
17 -12 -6 5 0
17 -6 7 0
17 6 1 -11 0
17 -2 -3 -4 0
17 -2 -6 4 12 0
17 -3 8 -4 -10 0
17 12 13 0
17 -2 4 10 0
1 -2 0
1 11 0
1 -10 -6 0
1 -3 0
1 -6 9 0
1 -4 0
1 -8 0
1 8 -6 0
1 10 0
1 -4 0
1 13 0
1 -2 -7 0
1 -7 0
1 -6 -13 0
1 11 0
1 -12 0
