p wcnf 14 60 19
19 2 -5 11 -14 0
19 13 6 12 0
19 -5 7 14 12 0
19 -8 -10 0
19 -4 14 11 -3 0
19 -5 -9 0
19 -1 11 0
19 -11 12 0
19 2 -13 0
19 9 3 -2 0
19 12 -10 6 0
19 -14 11 -8 10 0
19 -2 13 0
19 -6 5 -13 12 0
19 -5 -11 -4 12 0
19 -3 5 -10 0
19 -10 12 0
19 -2 -8 0
19 3 9 0
19 -14 11 0
19 11 3 0
19 -5 -3 0
19 1 8 -11 3 0
19 -9 1 -2 -12 0
19 7 -13 0
19 -13 2 -14 0
19 -10 -4 1 0
19 7 11 0
19 -3 -8 6 0
19 -7 -12 -9 0
19 -13 10 4 0
19 -3 -2 0
19 10 9 2 -8 0
19 14 -7 -2 0
19 4 -5 -1 0
19 -12 -14 0
19 -6 -8 -7 0
19 -11 7 14 -8 0
19 -2 14 -10 0
19 11 -3 -13 0
19 -2 -7 0
19 -7 -11 -3 0
1 -12 7 0
1 5 0
1 3 -10 0
1 6 12 0
1 -12 0
1 -9 0
1 -10 0
1 -3 13 0
1 -13 12 0
1 14 -7 0
1 -2 0
1 -14 -2 0
1 2 -7 0
1 14 0
1 -2 -10 0
1 13 -12 0
1 -3 0
1 -9 0
