p wcnf 19 74 20
20 -8 -18 0
20 9 19 0
20 -6 7 -8 0
20 12 19 0
20 9 19 -18 0
20 -14 -5 -19 0
20 2 17 0
20 -3 17 0
20 9 -8 13 4 0
20 7 10 16 -2 0
20 6 4 -8 -9 0
20 -13 14 0
20 5 -2 0
20 -2 6 -5 -15 0
20 -4 17 0
20 10 -16 -14 0
20 -4 12 -15 5 0
20 18 -19 0
20 1 4 13 -17 0
20 -1 18 10 4 0
20 10 -6 -17 0
20 15 -16 0
20 5 11 -14 15 0
20 -1 7 0
20 14 -4 -5 0
20 1 -13 -12 0
20 14 -10 -15 1 0
20 12 -16 2 0
20 -15 19 -14 0
20 -9 1 16 0
20 13 -8 0
20 10 19 0
20 -10 4 5 6 0
20 -17 10 0
20 19 -15 -2 0
20 7 14 8 0
20 -6 13 -4 0
20 -4 -19 0
20 10 -3 -13 -18 0
20 6 -15 0
20 -9 -2 0
20 -7 -15 -5 8 0
20 6 -4 19 10 0
20 3 -13 -2 0
20 8 -9 -6 -15 0
20 7 -18 0
20 18 2 1 0
20 4 5 -12 19 0
20 5 6 1 8 0
20 -10 3 0
20 -11 10 6 12 0
20 4 18 0
20 -15 2 -5 13 0
20 -17 19 0
20 12 11 0
1 10 17 0
1 -16 0
1 13 0
1 18 0
1 19 0
1 16 -15 0
1 14 9 0
1 -12 0
1 -3 0
1 17 0
1 3 0
1 -1 0
1 18 -13 0
1 11 0
1 -16 0
1 -6 0
1 -11 -5 0
1 -13 0
1 9 0
