p wcnf 14 51 20
20 -12 14 2 5 0
20 -1 -8 -7 -9 0
20 -10 2 6 13 0
20 -6 -8 -1 -13 0
20 -14 -12 0
20 1 9 13 0
20 -11 14 0
20 11 -8 -9 0
20 6 -2 0
20 -11 1 -4 0
20 5 -9 1 12 0
20 -3 -11 -7 0
20 -3 -14 9 1 0
20 -8 1 0
20 -9 10 -6 0
20 -1 -2 0
20 -11 1 8 -4 0
20 -4 -3 13 0
20 -2 -12 -9 -8 0
20 -3 -11 0
20 -7 -6 0
20 -5 -3 0
20 4 -7 0
20 2 -10 -8 0
20 -8 9 3 0
20 2 -4 9 7 0
20 13 3 14 -7 0
20 12 5 1 0
20 -7 -2 0
20 -1 -6 -10 -11 0
20 -3 -1 0
20 2 -4 -11 1 0
1 13 0
1 -13 0
1 5 0
1 -7 3 0
1 -3 0
1 -12 3 0
1 9 0
1 -6 0
1 6 0
1 -12 1 0
1 -10 6 0
1 9 0
1 -3 12 0
1 13 0
1 -2 14 0
1 4 0
1 -10 0
1 6 -5 0
1 12 0
