p wcnf 17 55 17
17 1 16 0
17 -3 -5 0
17 6 16 7 0
17 -3 1 7 14 0
17 1 -11 7 9 0
17 14 13 3 11 0
17 3 -9 16 0
17 14 4 9 0
17 2 -7 0
17 -14 6 0
17 17 -16 0
17 10 -6 0
17 -7 -13 -4 3 0
17 -3 -17 -6 0
17 -11 1 10 0
17 -10 -12 16 0
17 -1 -17 7 0
17 14 -9 -3 0
17 -15 1 14 8 0
17 1 -10 15 0
17 -10 2 0
17 -5 14 0
17 4 17 0
17 2 -3 0
17 -3 10 0
17 14 -13 8 0
17 -14 6 8 -17 0
17 -9 -2 0
17 14 11 0
17 10 -14 -9 0
17 -1 8 -5 0
17 -15 -6 -9 0
17 14 6 0
17 2 -7 14 0
17 4 2 5 0
17 4 2 -11 6 0
17 14 -7 0
17 5 15 -13 0
17 1 7 0
1 -17 0
1 17 -5 0
1 -13 0
1 -9 0
1 12 0
1 7 3 0
1 -17 15 0
1 -11 16 0
1 11 0
1 -11 -8 0
1 1 0
1 15 0
1 -3 0
1 -16 0
1 5 -14 0
1 -11 0
