p wcnf 12 47 15
15 -4 6 0
15 11 6 4 -10 0
15 5 6 9 0
15 3 -1 -5 0
15 -9 6 -1 0
15 9 11 12 0
15 8 -7 -3 5 0
15 9 1 0
15 1 -7 -11 3 0
15 2 12 -1 -11 0
15 8 1 -4 0
15 -3 -12 0
15 -4 11 -12 3 0
15 8 -9 0
15 1 -3 0
15 -2 1 6 0
15 8 9 0
15 -10 -11 0
15 -11 -8 4 0
15 -7 1 2 0
15 7 -1 -4 6 0
15 2 12 0
15 -8 2 1 0
15 -9 -7 6 -1 0
15 6 -3 0
15 12 2 0
15 -10 -1 -7 4 0
15 7 5 6 0
15 -10 1 0
15 -8 11 4 0
15 -4 5 8 0
15 -2 6 -12 7 0
15 11 -5 -3 -4 0
1 3 -4 0
1 5 0
1 7 0
1 4 0
1 -1 0
1 -11 -2 0
1 6 0
1 -5 6 0
1 -12 0
1 5 0
1 -6 0
1 -7 -8 0
1 -11 2 0
1 7 0
