p wcnf 18 45 9
9 1 -9 -6 0
9 -9 -7 0
9 -4 7 18 0
9 -14 18 0
9 -12 -18 0
9 7 -12 0
9 -9 -12 0
9 18 -4 11 -6 0
9 8 -18 0
9 -5 -14 13 8 0
9 15 -4 0
9 1 18 4 -10 0
9 5 -3 16 0
9 -4 -7 -13 -16 0
9 -13 16 0
9 -3 10 2 9 0
9 12 -4 -7 6 0
9 14 5 0
9 -5 -3 8 0
9 -12 -1 7 0
9 -8 -17 1 2 0
9 6 9 -2 11 0
9 11 8 -9 0
9 -15 13 -17 0
9 2 13 -11 0
9 -5 -15 -17 0
9 10 4 3 0
9 -7 -10 15 4 0
9 -7 -10 -16 11 0
9 12 -15 0
9 -8 -12 0
9 -8 10 16 0
9 -16 -7 0
9 -1 9 2 0
9 8 -17 5 0
9 -3 -12 2 0
9 -1 -18 13 5 0
1 14 4 0
1 11 0
1 -4 0
1 -12 0
1 12 0
1 -13 -8 0
1 12 -6 0
1 15 0
