p wcnf 17 46 14
14 11 -14 0
14 -5 -7 0
14 -8 -2 0
14 12 17 -8 5 0
14 -5 -15 6 -16 0
14 15 3 -9 0
14 -10 -17 0
14 -14 -2 10 0
14 12 13 1 0
14 8 -7 -14 0
14 -3 15 -8 0
14 -15 8 0
14 -14 -3 17 -15 0
14 4 -12 -14 0
14 -2 6 0
14 15 -1 0
14 1 -9 -7 -14 0
14 13 17 0
14 -5 -2 -9 8 0
14 2 -1 0
14 15 -13 0
14 2 14 -5 0
14 -10 -8 0
14 -4 -16 0
14 2 -3 0
14 5 7 6 14 0
14 14 -7 17 12 0
14 -13 -16 0
14 9 -6 -10 0
14 7 -10 13 15 0
14 -9 14 15 0
14 -9 14 0
14 8 11 0
1 -3 15 0
1 -17 0
1 17 -16 0
1 6 7 0
1 -6 0
1 8 -7 0
1 -7 14 0
1 -11 0
1 -13 0
1 -17 0
1 -2 0
1 -8 0
1 -17 0
