p wcnf 20 46 19
19 2 1 0
19 -15 -18 13 0
19 18 -4 0
19 -18 9 0
19 4 8 -13 -9 0
19 -8 -4 11 1 0
19 -2 13 10 11 0
19 11 1 17 0
19 -18 7 -10 0
19 -15 18 14 0
19 11 -16 -8 -7 0
19 -20 15 16 -8 0
19 -8 -10 0
19 -2 9 -14 -15 0
19 -8 -14 0
19 16 2 -13 0
19 -7 13 0
19 -10 -13 16 12 0
19 -19 5 -17 0
19 -20 14 -15 0
19 -19 -16 -10 0
19 -15 16 -4 19 0
19 -5 -7 0
19 20 4 13 0
19 -10 3 0
19 3 -5 -4 -11 0
19 13 -5 0
19 8 14 -13 0
1 16 0
1 -19 0
1 -12 0
1 4 -12 0
1 6 4 0
1 -14 -6 0
1 1 11 0
1 -18 12 0
1 20 0
1 -6 0
1 11 0
1 -13 -3 0
1 -13 8 0
1 -16 0
1 -1 0
1 14 10 0
1 1 -12 0
1 15 0
