p wcnf 12 43 13
13 -11 7 -1 -12 0
13 -2 -5 0
13 -3 -7 -2 -5 0
13 -11 12 -10 0
13 9 5 0
13 5 2 -7 0
13 7 10 -4 5 0
13 2 -10 -6 3 0
13 12 -1 2 0
13 5 2 6 0
13 -7 11 2 0
13 -2 6 0
13 -7 -5 9 0
13 -3 -5 6 -11 0
13 5 1 0
13 -10 11 2 -4 0
13 8 -1 7 9 0
13 9 -10 0
13 -4 -6 -10 0
13 5 -8 9 -4 0
13 7 5 0
13 8 -3 7 0
13 1 -10 4 0
13 -5 -7 0
13 10 -1 11 0
13 7 1 9 0
13 -7 -5 6 -8 0
13 7 9 0
13 -12 -8 -4 0
13 2 9 -5 8 0
13 4 10 11 2 0
1 -3 -10 0
1 -7 0
1 -6 0
1 -1 0
1 8 0
1 3 0
1 5 0
1 -9 3 0
1 11 4 0
1 2 0
1 11 0
1 -2 4 0
