p wcnf 16 43 17
17 10 3 -14 0
17 16 -7 -9 -13 0
17 4 -15 -2 0
17 9 14 7 0
17 11 15 -13 -16 0
17 -14 -12 0
17 2 -12 0
17 -12 3 4 0
17 -16 11 3 0
17 -2 -12 9 -8 0
17 -8 10 0
17 -7 9 0
17 1 -15 13 10 0
17 -8 12 0
17 -12 10 0
17 13 1 -6 -3 0
17 3 13 15 12 0
17 -11 -16 5 0
17 2 6 0
17 9 14 0
17 -8 5 0
17 1 -13 11 -16 0
17 7 13 0
17 9 2 -4 -1 0
17 -11 4 0
17 6 10 15 0
17 4 7 6 -12 0
1 -9 7 0
1 8 0
1 14 -11 0
1 -14 0
1 -1 0
1 -11 0
1 8 0
1 -15 0
1 16 0
1 15 10 0
1 -6 0
1 -13 0
1 13 0
1 -3 0
1 7 -8 0
1 -6 -15 0
