p wcnf 13 44 19
19 -8 1 -12 0
19 -1 -4 12 -8 0
19 1 -12 -13 11 0
19 5 -1 -12 -8 0
19 12 -7 0
19 4 -9 12 0
19 9 -1 0
19 -12 -11 -7 0
19 9 -1 -7 0
19 -1 -4 -10 0
19 5 -7 -3 4 0
19 -3 -11 -8 -1 0
19 13 8 4 0
19 -7 -5 0
19 -5 -6 -4 12 0
19 7 8 0
19 -3 -13 10 -1 0
19 -1 4 -11 0
19 2 -12 0
19 10 9 0
19 -6 -8 7 9 0
19 2 -1 -6 8 0
19 2 10 0
19 4 12 0
19 -6 13 -4 0
19 -1 -9 8 -6 0
1 10 1 0
1 -1 0
1 -2 0
1 -11 0
1 13 0
1 -2 -4 0
1 12 0
1 7 0
1 -1 8 0
1 12 9 0
1 8 0
1 -7 -6 0
1 5 0
1 -9 -8 0
1 13 9 0
1 6 0
1 10 -12 0
1 -12 0
