p wcnf 20 50 17
17 12 -13 9 0
17 -11 7 8 0
17 -12 -5 0
17 -17 -4 13 18 0
17 6 18 -20 0
17 2 -18 0
17 -20 -5 17 0
17 13 15 -9 17 0
17 -14 13 0
17 7 17 0
17 12 -20 13 -17 0
17 12 -7 0
17 -8 1 4 -18 0
17 -15 -5 -13 4 0
17 19 -6 -2 0
17 17 14 15 0
17 10 5 0
17 -13 12 -19 2 0
17 10 8 12 -4 0
17 10 -14 0
17 -18 12 -6 0
17 -12 3 -18 7 0
17 18 -5 -3 0
17 -2 -3 7 0
17 -12 -1 0
17 -2 7 0
17 14 7 0
17 3 12 0
17 3 19 10 0
17 -14 1 7 0
17 -10 17 0
17 -3 -15 0
17 -1 12 -2 -8 0
17 -5 1 6 0
1 -11 17 0
1 -18 0
1 -6 0
1 -9 -3 0
1 -10 0
1 20 0
1 -13 9 0
1 -12 0
1 -17 -11 0
1 5 0
1 13 0
1 16 0
1 -8 0
1 20 -18 0
1 -10 -14 0
1 -14 -10 0
