p wcnf 16 48 17
17 -16 -3 -11 -13 0
17 2 -4 -13 0
17 14 -9 13 0
17 11 14 -6 0
17 6 -3 0
17 -10 -1 16 0
17 -13 -7 10 0
17 12 11 0
17 -4 7 0
17 -7 -1 0
17 3 -15 -5 0
17 8 13 3 0
17 13 3 11 0
17 14 8 9 0
17 -16 -2 13 -7 0
17 11 -12 -9 5 0
17 10 9 0
17 -13 -3 -2 0
17 -11 4 0
17 -5 7 1 8 0
17 9 -13 16 0
17 -7 -1 -8 0
17 -11 -14 0
17 -3 -11 -14 0
17 -1 11 0
17 8 9 -7 0
17 -9 -11 -16 0
17 -9 -6 12 0
17 -12 4 0
17 2 -6 0
17 -10 -2 -8 0
17 7 -14 -1 -2 0
1 -1 7 0
1 -5 0
1 -15 0
1 12 -4 0
1 -16 0
1 9 0
1 -9 0
1 9 0
1 -13 0
1 4 0
1 9 0
1 15 0
1 -7 -8 0
1 9 0
1 7 0
1 -4 -15 0
