p wcnf 18 61 19
19 8 -6 -9 0
19 -9 -5 14 0
19 15 12 2 -6 0
19 7 3 0
19 2 -4 0
19 2 9 12 4 0
19 -15 8 9 0
19 12 2 -16 0
19 -4 -10 -15 -17 0
19 -2 6 -17 16 0
19 17 -15 -1 0
19 -12 16 0
19 -13 7 -9 -16 0
19 18 7 16 9 0
19 6 10 2 -5 0
19 3 2 13 0
19 15 14 17 0
19 3 1 0
19 16 10 0
19 -14 -17 0
19 4 -12 0
19 5 -12 0
19 13 -5 3 0
19 -7 6 1 2 0
19 12 -10 6 0
19 5 7 -3 -6 0
19 -3 -6 13 -16 0
19 -17 -6 0
19 4 -16 0
19 -10 15 -13 0
19 18 -6 -3 0
19 14 15 -1 12 0
19 3 14 9 0
19 -8 -18 0
19 -18 6 0
19 17 -6 0
19 15 -14 0
19 1 -2 -5 0
19 -18 8 14 -4 0
19 -3 18 -7 -15 0
19 -13 -12 -6 -18 0
19 5 -1 0
19 -3 -10 -4 5 0
1 -10 0
1 5 0
1 -11 0
1 11 0
1 -6 0
1 10 -14 0
1 13 0
1 -11 0
1 -17 -13 0
1 9 0
1 -2 -3 0
1 -6 0
1 -3 -11 0
1 5 0
1 -3 0
1 14 -7 0
1 -7 0
1 -8 0
