p wcnf 20 48 20
20 -20 -6 10 -1 0
20 -2 -19 -14 5 0
20 4 15 11 12 0
20 20 12 -10 4 0
20 -10 17 1 0
20 -4 5 0
20 -16 10 -19 -18 0
20 16 11 0
20 -9 16 0
20 -1 19 -17 -8 0
20 16 -15 0
20 -6 -9 -3 0
20 -2 -13 16 -20 0
20 17 -11 -20 5 0
20 -18 -7 0
20 5 7 10 -3 0
20 18 19 -17 -15 0
20 11 -9 0
20 10 9 0
20 -2 -20 -1 0
20 -3 20 -5 -6 0
20 -19 4 -3 8 0
20 -9 -15 7 -13 0
20 19 6 -1 -14 0
20 2 -12 -5 16 0
20 -1 8 0
20 9 6 -19 0
20 6 -19 0
20 -19 6 -9 0
1 -10 17 0
1 14 -4 0
1 -18 0
1 7 0
1 6 0
1 20 0
1 -10 18 0
1 9 0
1 16 0
1 3 14 0
1 4 0
1 4 0
1 19 0
1 -15 0
1 -10 11 0
1 -20 0
1 3 0
1 -16 0
1 4 0
