p wcnf 20 50 19
19 2 -20 15 0
19 -6 18 -19 0
19 -17 -7 -13 0
19 -19 4 -7 0
19 -13 1 16 15 0
19 -1 -6 -2 15 0
19 3 15 -20 0
19 -3 -15 0
19 16 -11 0
19 -4 -8 -2 5 0
19 -3 6 -12 16 0
19 1 -9 18 2 0
19 19 -6 0
19 7 -14 0
19 -3 15 0
19 9 -19 8 -17 0
19 20 -12 0
19 6 14 -1 0
19 5 -17 -20 0
19 -2 -8 -4 0
19 -6 5 8 -16 0
19 16 -11 -13 18 0
19 -10 -11 0
19 -20 -2 0
19 13 14 1 0
19 11 -1 3 4 0
19 -4 -19 -17 12 0
19 -13 -2 -18 0
19 -14 -7 -5 -12 0
19 -20 -17 -5 12 0
19 -3 13 2 19 0
19 -19 17 0
1 3 0
1 12 0
1 -1 -10 0
1 16 9 0
1 15 14 0
1 -5 0
1 5 0
1 -14 -18 0
1 20 0
1 -11 0
1 -9 0
1 -14 0
1 4 0
1 7 0
1 -7 0
1 -6 0
1 19 0
1 14 0
