p wcnf 19 67 16
16 4 -12 5 -15 0
16 5 12 0
16 14 13 0
16 5 -8 -12 -9 0
16 14 -12 0
16 3 -8 0
16 -18 -17 0
16 19 -3 2 13 0
16 -12 7 0
16 8 -12 0
16 13 9 0
16 -12 2 5 0
16 15 -2 -1 -17 0
16 -12 -8 19 0
16 -6 -10 0
16 2 9 -6 0
16 7 2 0
16 2 17 7 0
16 12 5 0
16 9 -7 -18 2 0
16 16 9 -15 6 0
16 -2 4 -10 0
16 3 -9 -12 -11 0
16 11 15 0
16 7 -17 -14 4 0
16 -5 3 -10 0
16 -8 18 0
16 -6 -17 0
16 -9 -4 0
16 6 -1 -11 0
16 8 18 0
16 3 2 8 -10 0
16 4 9 0
16 -4 3 7 0
16 16 14 1 -9 0
16 19 13 -2 -3 0
16 7 -3 0
16 4 -16 5 1 0
16 -10 17 2 5 0
16 -17 -10 11 0
16 14 -4 5 0
16 -5 3 -9 -2 0
16 9 -16 0
16 -8 -2 0
16 13 -4 -19 0
16 16 19 0
16 1 6 0
16 5 11 13 7 0
16 -11 -6 -1 15 0
16 16 -7 -1 -4 0
16 19 -16 0
16 -16 2 -12 8 0
1 -8 0
1 -1 0
1 14 0
1 16 0
1 15 0
1 9 0
1 -16 19 0
1 -7 0
1 -10 0
1 -13 0
1 18 0
1 9 0
1 -15 0
1 -4 0
1 -9 10 0
