p wcnf 12 45 20
20 -3 4 0
20 7 -4 0
20 10 -8 -11 0
20 -9 -3 8 -2 0
20 1 -4 -10 0
20 2 -8 -6 0
20 -12 10 -3 2 0
20 3 11 0
20 8 -12 7 0
20 12 -9 0
20 12 -4 -10 2 0
20 -10 7 -5 0
20 -10 9 12 0
20 8 -9 5 0
20 10 -12 -8 7 0
20 1 -12 0
20 -9 2 12 0
20 -1 -7 -2 5 0
20 7 -2 0
20 9 8 12 -3 0
20 9 5 6 0
20 -6 -3 -5 0
20 5 4 0
20 -5 -7 -3 0
20 -1 7 4 0
20 -9 5 0
1 10 0
1 -10 4 0
1 -4 -1 0
1 6 0
1 9 0
1 -9 0
1 8 -12 0
1 1 0
1 -9 12 0
1 -3 -2 0
1 9 0
1 -12 0
1 -4 -3 0
1 -8 0
1 -4 0
1 6 0
1 10 0
1 -7 -9 0
1 4 0
