p wcnf 14 40 10
10 -7 14 3 13 0
10 -4 -6 0
10 -10 8 7 -4 0
10 12 -8 0
10 7 9 6 -3 0
10 -4 9 0
10 -13 -2 0
10 -7 -11 0
10 -13 7 0
10 12 -5 2 6 0
10 3 10 -9 -14 0
10 9 3 4 0
10 -7 9 1 -10 0
10 -7 13 -1 -8 0
10 -5 -6 -14 4 0
10 10 -6 -9 0
10 -3 9 0
10 -1 9 0
10 4 12 0
10 -1 3 0
10 10 -9 6 0
10 -12 -8 1 6 0
10 6 12 -11 8 0
10 -3 14 0
10 -7 9 -8 13 0
10 7 -3 -10 0
10 -8 2 -4 -3 0
10 14 -8 1 0
10 -12 5 14 -13 0
10 11 -13 -12 0
10 1 -11 -4 -2 0
1 4 0
1 1 0
1 -1 -4 0
1 -9 0
1 10 0
1 -13 0
1 9 -2 0
1 9 -4 0
1 10 0
