p wcnf 17 54 20
20 -10 -1 0
20 3 11 9 4 0
20 -10 -8 0
20 7 10 15 4 0
20 15 -12 4 0
20 -16 -17 0
20 14 3 1 -8 0
20 -17 -11 -3 8 0
20 3 -17 6 7 0
20 9 1 0
20 14 -9 -4 0
20 -14 1 -8 0
20 -1 -15 -17 0
20 -9 11 0
20 10 7 -3 0
20 8 6 -11 3 0
20 -15 -9 10 0
20 -14 -1 -16 3 0
20 16 -6 15 12 0
20 -9 -10 -13 0
20 8 1 9 0
20 -10 -16 -14 0
20 -14 -7 -16 0
20 3 -5 -12 -14 0
20 -4 -16 -5 0
20 -12 1 0
20 6 -16 -3 0
20 -17 -8 -10 -1 0
20 -13 9 0
20 15 2 4 -3 0
20 4 -11 0
20 17 -9 0
20 11 2 -9 0
20 -2 7 -4 0
20 -15 -4 -10 -5 0
1 1 0
1 -6 0
1 -13 -15 0
1 -15 10 0
1 -9 -14 0
1 10 9 0
1 13 -6 0
1 -13 0
1 7 0
1 -14 0
1 4 0
1 16 0
1 13 0
1 -8 0
1 3 0
1 -8 0
1 -17 8 0
1 8 11 0
1 -12 0
