p wcnf 20 63 15
15 -7 2 8 0
15 14 -10 11 0
15 -20 16 -15 14 0
15 9 -10 -6 -18 0
15 -2 -1 -9 0
15 -2 6 -12 0
15 -18 10 0
15 -4 20 0
15 14 -5 1 0
15 13 19 0
15 9 13 -11 0
15 -14 7 10 15 0
15 -7 -4 0
15 -10 -7 -13 0
15 -2 18 0
15 5 16 8 0
15 2 1 -18 0
15 8 -13 -5 0
15 -6 12 0
15 18 7 0
15 -7 -18 -17 0
15 -12 17 5 11 0
15 -16 18 0
15 -6 7 0
15 16 10 -12 0
15 11 -18 9 0
15 -4 8 -9 -7 0
15 10 13 -5 0
15 19 -6 0
15 17 -15 0
15 -13 14 -2 0
15 20 15 4 -10 0
15 3 -7 0
15 -14 -3 0
15 -16 -3 6 0
15 -20 -8 -18 6 0
15 6 -9 -14 -15 0
15 19 -9 0
15 -10 -7 0
15 -10 8 17 0
15 -1 -19 0
15 2 8 16 0
15 14 18 0
15 -4 -16 0
15 10 14 -15 0
15 11 14 0
15 -19 13 0
15 -16 -14 2 0
15 -16 -4 0
1 -16 0
1 -17 0
1 -13 8 0
1 -9 0
1 -10 0
1 -10 0
1 16 0
1 -9 -20 0
1 -1 -3 0
1 16 -11 0
1 14 0
1 -7 0
1 -16 0
1 1 16 0
