p wcnf 19 46 16
16 17 -11 0
16 -10 -11 0
16 10 18 16 0
16 2 -12 0
16 4 -10 2 6 0
16 17 15 0
16 -11 -10 0
16 10 7 -6 2 0
16 19 14 5 -1 0
16 12 4 1 0
16 -10 -18 -7 0
16 -10 -3 0
16 1 -10 0
16 13 -19 -1 15 0
16 -11 -7 0
16 18 13 19 0
16 6 2 -16 -7 0
16 3 8 0
16 6 3 -12 17 0
16 -5 8 0
16 -6 -3 -10 16 0
16 -6 3 19 0
16 1 -8 6 -16 0
16 19 3 -9 -11 0
16 5 -4 -13 0
16 -11 -18 17 0
16 -9 19 0
16 -2 17 6 0
16 -19 -11 -4 9 0
16 4 18 0
16 6 11 0
1 -10 0
1 4 0
1 -18 0
1 3 0
1 -5 0
1 16 0
1 8 16 0
1 6 13 0
1 -1 0
1 -11 18 0
1 4 0
1 -17 7 0
1 -3 0
1 -19 0
1 10 0
