p wcnf 18 46 19
19 10 -4 -5 0
19 15 -14 5 -18 0
19 -18 -9 -11 0
19 -9 -10 5 15 0
19 -4 -6 -18 2 0
19 -15 3 0
19 -9 15 0
19 -10 11 -17 0
19 15 -18 0
19 16 -8 17 -6 0
19 -18 -3 -4 7 0
19 -16 7 0
19 2 15 5 7 0
19 -17 16 -8 -11 0
19 2 -15 0
19 16 -10 14 0
19 -1 14 -18 0
19 -3 12 0
19 16 -6 14 0
19 -15 12 -2 0
19 -13 16 -14 -18 0
19 6 -18 0
19 7 18 0
19 18 12 0
19 16 -10 6 18 0
19 -16 -1 -3 0
19 -15 -6 -12 0
19 -8 18 -6 0
1 -2 0
1 -6 0
1 9 0
1 -2 0
1 11 -16 0
1 2 0
1 5 0
1 7 0
1 2 0
1 13 -14 0
1 12 -17 0
1 -12 5 0
1 -13 9 0
1 10 0
1 10 0
1 18 -10 0
1 -8 0
1 13 -8 0
