p wcnf 16 61 21
21 -7 -1 0
21 4 -10 3 11 0
21 9 -16 13 0
21 2 3 4 9 0
21 -16 -12 -3 -14 0
21 5 9 13 -1 0
21 4 -5 13 0
21 -8 -14 12 -10 0
21 7 -3 0
21 11 -2 0
21 10 14 -4 0
21 2 -9 12 7 0
21 -11 -6 -16 7 0
21 -2 12 0
21 -6 -9 -1 0
21 7 -14 -1 0
21 12 -5 6 -9 0
21 15 9 0
21 -1 15 6 0
21 -7 -15 8 12 0
21 -10 2 0
21 9 -14 6 0
21 -8 -4 -12 0
21 14 12 1 0
21 -7 4 -10 0
21 -3 4 0
21 -1 15 14 12 0
21 4 2 0
21 9 -6 -13 -1 0
21 11 -14 3 0
21 -1 -12 9 0
21 -8 5 0
21 4 -12 -16 15 0
21 9 -7 0
21 7 -15 0
21 -9 13 0
21 -9 -6 0
21 -13 11 -9 12 0
21 -7 -16 0
21 -14 -2 10 0
21 1 7 -9 0
1 -16 0
1 1 2 0
1 5 1 0
1 -2 0
1 -13 0
1 12 0
1 15 0
1 2 0
1 3 0
1 -14 0
1 -4 14 0
1 4 -8 0
1 -8 -3 0
1 -10 0
1 11 -10 0
1 -5 0
1 6 -8 0
1 14 -8 0
1 12 0
1 9 0
