p wcnf 20 56 20
20 -11 -18 0
20 -4 12 1 7 0
20 15 -18 -13 0
20 12 -9 -19 7 0
20 -11 13 -5 12 0
20 7 -4 14 -20 0
20 -1 17 0
20 -14 -7 0
20 8 -20 0
20 19 -4 0
20 -19 20 0
20 9 5 -18 0
20 16 -19 -11 0
20 11 -5 -7 0
20 -6 5 12 0
20 -9 -14 -20 17 0
20 -14 10 0
20 5 11 6 0
20 4 20 11 0
20 11 14 0
20 -6 9 -18 12 0
20 18 5 -7 0
20 -12 -14 -15 0
20 18 -2 0
20 20 -8 0
20 11 16 -15 -17 0
20 1 -3 -20 -7 0
20 -10 -17 -13 -12 0
20 -8 16 4 0
20 -20 11 -7 10 0
20 17 4 0
20 6 -11 17 -8 0
20 -4 10 0
20 2 15 20 -11 0
20 -11 8 -15 0
20 -14 -13 0
20 -15 -1 4 0
1 15 -1 0
1 -17 0
1 7 0
1 -6 0
1 18 0
1 6 5 0
1 15 13 0
1 12 1 0
1 -10 12 0
1 13 0
1 14 0
1 11 0
1 7 4 0
1 11 0
1 -4 0
1 1 0
1 -18 0
1 -15 -2 0
1 -6 0
