p wcnf 19 45 15
15 9 -6 0
15 -15 -6 -2 0
15 18 2 0
15 14 10 13 -5 0
15 -14 -10 -11 0
15 10 7 -14 0
15 -2 13 1 0
15 12 -17 -19 0
15 -1 -10 0
15 15 -16 -13 -11 0
15 -4 10 0
15 8 -3 4 0
15 12 -19 14 -9 0
15 9 -14 0
15 -16 10 -3 0
15 3 -16 0
15 -2 12 1 -5 0
15 9 5 -11 4 0
15 -6 -4 0
15 16 -7 0
15 -3 -4 -9 0
15 -10 14 -3 0
15 -1 -18 0
15 8 -10 0
15 -17 11 -5 1 0
15 12 -2 15 19 0
15 -18 10 -14 8 0
15 18 7 6 19 0
15 12 13 -14 0
15 -1 8 0
15 -5 13 -11 1 0
1 -4 0
1 3 -7 0
1 -17 0
1 -10 0
1 -14 -4 0
1 -7 13 0
1 -8 -4 0
1 -14 -3 0
1 19 0
1 1 15 0
1 -12 0
1 -15 0
1 -12 0
1 14 12 0
