p wcnf 12 47 18
18 -5 -11 10 0
18 8 4 -2 -5 0
18 4 -12 0
18 9 11 5 0
18 -7 -11 0
18 -10 -4 3 -8 0
18 9 -12 -2 0
18 -3 2 0
18 4 11 2 0
18 -5 11 4 7 0
18 3 -11 0
18 11 12 -3 -2 0
18 5 6 0
18 5 -8 0
18 10 3 -8 -4 0
18 2 -11 -7 1 0
18 8 -12 3 -6 0
18 1 7 -5 0
18 -6 -9 -11 10 0
18 -4 3 0
18 -10 -4 11 9 0
18 12 1 0
18 6 -7 0
18 -7 -12 -2 0
18 1 -3 -12 10 0
18 -12 1 -7 0
18 -8 1 5 0
18 3 -4 11 8 0
18 11 -10 -1 0
18 -1 11 -8 0
1 11 -10 0
1 -7 0
1 8 0
1 -6 0
1 9 0
1 -11 7 0
1 2 0
1 1 0
1 2 -1 0
1 -1 -6 0
1 -5 0
1 2 0
1 -1 -3 0
1 -3 -6 0
1 5 12 0
1 -12 0
1 -9 0
