p wcnf 17 50 20
20 -1 -11 -16 12 0
20 15 7 0
20 17 -7 0
20 -13 1 2 0
20 4 -1 14 5 0
20 10 -12 0
20 3 -7 -13 10 0
20 -15 7 6 0
20 -2 -13 0
20 -6 2 -17 0
20 -2 12 -13 -11 0
20 -12 4 0
20 -13 9 -10 3 0
20 -11 -1 0
20 10 9 7 0
20 5 3 0
20 12 15 7 16 0
20 8 2 -15 0
20 2 10 -15 0
20 -13 12 -16 0
20 -8 -4 0
20 -9 12 -3 0
20 -2 7 0
20 12 -7 -5 3 0
20 13 -17 0
20 -15 7 0
20 -5 16 -4 0
20 -11 -10 4 0
20 -15 5 -13 0
20 5 -14 4 1 0
20 -12 17 -11 -8 0
1 3 0
1 -9 0
1 -8 0
1 16 0
1 -2 0
1 -6 -10 0
1 12 0
1 -15 9 0
1 -1 0
1 -15 0
1 -12 0
1 4 0
1 -16 0
1 4 0
1 5 0
1 -5 17 0
1 13 0
1 15 0
1 -16 0
