p wcnf 17 43 14
14 5 -10 8 0
14 6 -15 8 -2 0
14 15 -14 -7 0
14 -14 -4 17 -8 0
14 -13 -10 -9 0
14 5 17 0
14 -3 -12 -6 0
14 -11 -4 -12 2 0
14 -10 17 -8 0
14 -8 9 -2 -11 0
14 16 -8 -14 0
14 1 -7 -2 9 0
14 -11 8 0
14 17 -2 0
14 2 16 -11 -13 0
14 11 14 -17 16 0
14 14 10 0
14 3 -10 1 -15 0
14 6 15 0
14 -16 15 -7 0
14 11 13 -5 15 0
14 -8 -2 0
14 -5 -2 -12 14 0
14 -8 -9 0
14 -5 13 0
14 11 -5 0
14 10 -13 6 -16 0
14 10 6 8 -11 0
14 -3 -17 5 4 0
14 -3 -4 -1 2 0
1 -11 0
1 5 0
1 7 14 0
1 11 0
1 10 0
1 17 -15 0
1 -13 0
1 -6 0
1 -6 0
1 6 -16 0
1 10 0
1 13 8 0
1 -7 0
