p wcnf 18 43 16
16 11 16 6 0
16 8 16 0
16 -12 -7 13 -3 0
16 -6 -9 -3 8 0
16 -14 12 0
16 5 6 -10 12 0
16 16 8 0
16 4 7 -10 16 0
16 -15 -12 6 0
16 -15 11 7 0
16 -5 18 0
16 -8 -1 12 0
16 17 14 -6 0
16 -1 -7 12 -9 0
16 -7 -3 5 -8 0
16 13 3 -4 -9 0
16 17 15 10 0
16 5 9 -4 0
16 11 -1 18 0
16 -10 11 -6 0
16 -18 6 1 13 0
16 -14 -17 4 -8 0
16 3 5 0
16 4 3 -12 0
16 -8 -7 12 0
16 18 5 0
16 8 12 0
16 -14 -17 -6 0
1 -14 0
1 6 0
1 -4 0
1 12 0
1 15 0
1 -4 18 0
1 16 0
1 -17 0
1 -15 2 0
1 18 9 0
1 9 18 0
1 -5 0
1 -7 0
1 -13 0
1 11 0
