p wcnf 19 45 21
21 -16 -2 6 0
21 -2 9 0
21 14 -3 6 0
21 5 -17 11 0
21 -12 15 0
21 -7 5 0
21 15 -3 1 -7 0
21 10 -7 9 11 0
21 -1 -14 5 0
21 -9 -2 -4 14 0
21 -7 4 -3 0
21 1 3 -17 0
21 -16 -9 -15 -11 0
21 -10 5 -12 14 0
21 -10 6 2 18 0
21 -19 17 5 -7 0
21 4 -9 -10 -6 0
21 -7 3 -4 -10 0
21 15 -5 0
21 -8 -9 0
21 13 -12 -18 0
21 -4 -7 11 0
21 1 3 9 -15 0
21 15 -10 0
21 2 -7 0
1 18 0
1 -14 -12 0
1 -2 0
1 -8 -5 0
1 -8 3 0
1 6 0
1 8 0
1 12 -3 0
1 11 0
1 18 -15 0
1 -14 -15 0
1 -15 0
1 2 0
1 -4 0
1 -3 0
1 -7 0
1 18 0
1 -7 0
1 12 0
1 -10 -17 0
