p wcnf 12 53 20
20 -10 -11 5 -6 0
20 -4 10 5 0
20 -8 -2 1 0
20 -10 4 -3 1 0
20 -4 1 0
20 -3 4 0
20 7 3 9 0
20 -5 -4 0
20 -10 -9 0
20 6 9 4 0
20 -1 6 0
20 6 1 0
20 -1 5 0
20 -1 2 0
20 12 5 0
20 -2 -6 0
20 -4 8 0
20 -10 5 0
20 11 -1 -4 0
20 -4 12 6 0
20 6 8 9 0
20 -7 -1 -4 0
20 11 7 8 4 0
20 -2 9 0
20 -10 -9 -8 0
20 -3 10 -7 0
20 1 -8 -3 10 0
20 -1 -4 -8 6 0
20 -9 -2 0
20 -7 1 11 0
20 10 -2 -11 -1 0
20 8 12 -7 0
20 -7 10 0
20 5 -10 0
1 2 -7 0
1 -1 0
1 -4 0
1 -9 0
1 5 0
1 7 0
1 -5 -11 0
1 -3 0
1 -12 4 0
1 8 0
1 11 0
1 -10 0
1 -8 -3 0
1 -5 1 0
1 5 0
1 -6 0
1 -1 0
1 -12 4 0
1 -8 -12 0
