p wcnf 18 49 16
16 9 5 0
16 17 7 0
16 -9 15 -17 0
16 -6 -3 -4 0
16 8 1 -5 15 0
16 -18 -1 0
16 7 11 5 0
16 -16 -8 -18 0
16 13 16 0
16 13 -5 0
16 -14 -18 0
16 11 13 8 0
16 -16 9 12 -14 0
16 -9 -4 -8 -2 0
16 -2 -12 17 15 0
16 -6 -7 4 -11 0
16 12 5 -13 0
16 7 17 0
16 -1 -2 -4 -14 0
16 -17 10 -5 0
16 11 9 -1 0
16 -12 7 -14 0
16 18 10 -16 0
16 14 1 -12 0
16 -12 4 7 0
16 4 6 15 0
16 -8 11 -6 -14 0
16 -10 17 0
16 6 10 -1 -11 0
16 -7 -3 4 0
16 17 -11 -14 13 0
16 3 -10 -16 0
16 17 18 0
16 4 7 0
1 -2 16 0
1 -7 -11 0
1 9 0
1 -13 0
1 16 4 0
1 11 0
1 7 0
1 2 0
1 -13 7 0
1 -4 0
1 -2 0
1 -6 0
1 -14 -8 0
1 14 0
1 -8 0
