p wcnf 15 52 17
17 11 -4 -13 15 0
17 7 -15 -5 9 0
17 13 -15 3 4 0
17 13 -10 6 0
17 10 -12 6 0
17 -14 -9 4 0
17 11 -1 9 13 0
17 15 7 13 0
17 4 -1 9 0
17 15 10 0
17 -3 13 11 0
17 13 -14 1 0
17 6 8 -4 -15 0
17 -3 11 -14 -6 0
17 13 3 0
17 -11 14 -13 15 0
17 -3 -11 2 0
17 -1 11 0
17 -1 5 14 -15 0
17 -8 -2 -3 9 0
17 -9 -7 2 15 0
17 -15 -3 0
17 -12 -9 10 -14 0
17 -12 13 -9 0
17 -8 -9 12 0
17 15 2 0
17 -9 12 -10 -14 0
17 -6 -10 0
17 -4 -7 6 -14 0
17 2 3 -8 0
17 9 -15 -14 -13 0
17 10 3 5 0
17 9 1 11 -13 0
17 -15 13 0
17 -1 12 -5 3 0
17 -3 9 -13 4 0
1 -8 3 0
1 14 0
1 -7 0
1 10 -4 0
1 -6 0
1 3 0
1 15 -6 0
1 12 -6 0
1 6 0
1 -9 0
1 -13 -7 0
1 15 -14 0
1 -6 -10 0
1 -15 0
1 -4 0
1 14 -3 0
