p wcnf 13 51 17
17 -6 1 12 -10 0
17 -10 7 0
17 -2 -8 5 0
17 8 2 12 0
17 -9 10 -4 6 0
17 -10 12 0
17 5 11 -7 0
17 11 6 0
17 6 13 -8 0
17 -3 4 -2 0
17 -3 -7 11 0
17 -5 -4 12 7 0
17 4 -9 0
17 7 3 -2 0
17 11 -12 5 8 0
17 11 -4 -1 0
17 -3 13 0
17 10 -7 -2 0
17 -12 -1 3 -11 0
17 1 12 7 -9 0
17 -3 10 0
17 -9 -8 -4 5 0
17 9 1 6 0
17 3 -11 0
17 -2 -7 -10 -4 0
17 9 5 -11 -8 0
17 -1 -3 -13 0
17 -7 10 12 -3 0
17 2 11 -9 -13 0
17 -9 -12 0
17 -11 -6 -8 4 0
17 -6 -5 4 -9 0
17 -3 12 0
17 5 13 0
17 12 9 -2 0
1 1 8 0
1 -1 9 0
1 6 0
1 13 0
1 10 0
1 13 0
1 -1 -8 0
1 4 0
1 -12 1 0
1 -7 0
1 -11 4 0
1 -5 -8 0
1 -12 -11 0
1 -9 0
1 2 0
1 5 0
