p wcnf 19 50 17
17 11 4 0
17 9 -4 -7 -8 0
17 -2 -12 5 -17 0
17 -3 15 -5 0
17 -10 8 -17 0
17 10 -7 17 0
17 -4 -19 17 0
17 -18 -7 17 16 0
17 -5 -1 0
17 -12 -14 2 0
17 14 10 0
17 -6 -10 -19 16 0
17 -13 12 17 0
17 -18 19 0
17 7 3 -19 0
17 17 -5 1 -14 0
17 14 6 16 -18 0
17 -15 10 5 3 0
17 3 -17 0
17 -3 10 0
17 11 5 0
17 11 13 0
17 -8 9 0
17 -1 -19 -13 18 0
17 -1 -6 -15 16 0
17 17 4 0
17 9 12 4 0
17 10 6 18 0
17 10 -12 2 0
17 12 -2 -6 14 0
17 14 -7 -4 0
17 -9 5 -8 0
17 4 -14 0
17 8 14 0
1 -4 0
1 -16 0
1 -8 -13 0
1 10 19 0
1 4 6 0
1 -7 0
1 7 0
1 -18 0
1 19 18 0
1 -12 15 0
1 17 0
1 -10 0
1 -8 -19 0
1 11 -16 0
1 3 0
1 13 16 0
