p wcnf 12 45 12
12 -4 6 -5 0
12 -6 -1 -4 0
12 -12 -5 0
12 -11 8 0
12 2 -9 6 0
12 12 6 2 -4 0
12 -1 12 0
12 7 -11 10 0
12 -7 -3 2 4 0
12 -12 8 -11 0
12 -6 3 -11 0
12 11 -10 0
12 -3 1 4 5 0
12 11 12 -3 -10 0
12 -7 2 12 -4 0
12 8 -5 -6 -3 0
12 -12 -11 0
12 -12 2 0
12 6 -11 1 -10 0
12 -1 -12 9 -5 0
12 8 3 0
12 -3 10 -9 0
12 8 -6 0
12 12 4 -7 1 0
12 12 -9 8 0
12 8 2 -3 0
12 4 -6 11 12 0
12 11 -2 4 1 0
12 11 -3 -6 4 0
12 -3 -4 -8 0
12 9 -4 6 0
12 -5 11 -3 0
12 -12 -4 0
12 -2 -1 -10 -3 0
1 -6 9 0
1 -1 0
1 -5 10 0
1 3 0
1 -10 0
1 11 5 0
1 5 0
1 -12 0
1 -8 11 0
1 4 0
1 11 0
