p wcnf 10 42 14
14 -4 9 -1 3 0
14 7 -1 5 3 0
14 -7 -5 3 0
14 6 10 -1 7 0
14 8 7 0
14 6 -3 10 7 0
14 6 1 5 -10 0
14 -3 -2 -9 8 0
14 -8 7 0
14 -4 8 0
14 -9 4 -2 0
14 -2 1 0
14 4 -7 -1 0
14 8 4 -3 0
14 -3 -8 10 -5 0
14 9 -7 -5 0
14 -6 3 5 0
14 -1 9 -6 -7 0
14 -8 7 -9 -1 0
14 8 2 10 7 0
14 3 10 0
14 3 10 6 0
14 -3 -2 0
14 -4 10 -6 -9 0
14 -8 -3 -10 -4 0
14 3 5 8 -4 0
14 1 4 2 0
14 -9 1 6 5 0
14 -3 -8 -7 4 0
1 5 0
1 -6 -5 0
1 -3 0
1 5 0
1 -4 0
1 -7 4 0
1 -3 -7 0
1 -1 0
1 -1 0
1 8 0
1 9 0
1 -5 9 0
1 7 3 0
