p wcnf 12 44 15
15 -4 -10 2 11 0
15 2 -11 10 0
15 -12 7 1 0
15 -2 -3 -8 0
15 10 5 -3 -1 0
15 11 -1 2 3 0
15 -7 4 5 0
15 9 8 4 0
15 -11 12 5 -7 0
15 -1 -12 3 -6 0
15 -3 -7 12 0
15 -4 8 -12 -10 0
15 12 11 -3 0
15 -10 5 2 -1 0
15 -11 6 12 -10 0
15 -3 9 -6 8 0
15 -9 6 -2 0
15 7 -9 -4 11 0
15 -7 -6 3 0
15 -4 7 0
15 11 -9 12 0
15 -2 -3 0
15 9 -2 5 -3 0
15 -5 -6 -3 -11 0
15 6 4 11 -9 0
15 12 5 2 0
15 -4 -5 0
15 9 -10 12 -1 0
15 -4 -3 0
15 -11 10 3 0
1 -10 0
1 4 0
1 -7 11 0
1 -8 10 0
1 8 0
1 -5 0
1 -10 0
1 -1 6 0
1 9 -6 0
1 -12 -3 0
1 5 0
1 1 0
1 12 0
1 2 9 0
