p wcnf 17 47 14
14 -4 1 0
14 -4 -5 -3 0
14 17 6 -11 0
14 17 -5 2 -16 0
14 15 -5 16 13 0
14 2 -15 12 14 0
14 5 16 4 0
14 14 -7 -6 0
14 9 -5 6 0
14 10 15 -12 17 0
14 5 1 13 0
14 -8 11 6 0
14 -10 6 7 0
14 2 7 -10 0
14 -15 3 -17 0
14 -14 13 11 0
14 12 -11 0
14 -8 10 3 0
14 5 11 -17 -13 0
14 1 5 0
14 -11 -12 0
14 13 -3 0
14 13 -15 1 0
14 14 -1 0
14 -13 -8 -9 -17 0
14 -1 -6 2 0
14 15 -11 16 7 0
14 -2 9 0
14 9 16 0
14 11 -15 0
14 -12 5 3 0
14 12 11 -17 16 0
14 8 -16 -2 0
14 -2 8 5 0
1 6 -10 0
1 -11 0
1 -1 0
1 -14 0
1 5 0
1 -7 0
1 -1 0
1 9 0
1 -3 0
1 10 -15 0
1 4 -9 0
1 3 0
1 -7 0
