p wcnf 19 44 13
13 -10 17 0
13 -2 18 0
13 9 8 -1 0
13 10 5 -14 0
13 11 -15 -3 5 0
13 14 -5 4 9 0
13 2 -1 -5 -17 0
13 13 12 0
13 -8 1 -13 0
13 -5 -15 -11 0
13 -10 6 2 1 0
13 6 9 0
13 -15 9 -18 0
13 2 3 -6 -18 0
13 12 -8 -2 11 0
13 8 9 0
13 -1 -18 -16 0
13 -6 -4 -10 -17 0
13 12 -1 19 -18 0
13 16 5 -18 0
13 -19 8 -12 0
13 14 7 0
13 5 -15 0
13 1 7 -17 -19 0
13 -15 -19 12 0
13 -15 -7 0
13 -7 9 -12 0
13 -18 -12 6 -9 0
13 5 -7 -13 -1 0
13 11 3 1 2 0
13 14 -10 0
13 7 18 -4 0
1 -10 0
1 -3 -12 0
1 14 0
1 5 0
1 8 0
1 8 0
1 -9 15 0
1 -16 0
1 10 15 0
1 14 11 0
1 7 0
1 -4 0
