p wcnf 19 50 14
14 13 3 -15 12 0
14 15 2 -5 9 0
14 1 12 0
14 -1 -13 0
14 -17 -7 0
14 -7 8 0
14 -12 18 -9 -3 0
14 -12 -5 0
14 17 5 15 13 0
14 13 -3 11 9 0
14 -15 11 -17 0
14 16 -18 0
14 7 9 1 -19 0
14 7 -12 0
14 2 12 10 -14 0
14 -6 -14 4 0
14 19 12 -5 0
14 -3 17 9 0
14 -18 -17 -3 -13 0
14 1 -6 -8 0
14 19 -11 -16 14 0
14 7 -18 0
14 -17 6 -7 -19 0
14 5 -16 11 0
14 -17 6 0
14 -17 12 -18 0
14 1 16 0
14 -15 -1 -11 13 0
14 -19 11 17 0
14 -16 1 -11 0
14 4 19 0
14 -14 15 -5 12 0
14 12 -2 0
14 11 -7 0
14 6 19 -2 0
14 -16 -15 0
14 2 1 0
1 -6 0
1 18 0
1 11 -1 0
1 3 10 0
1 11 0
1 -13 0
1 12 -19 0
1 -10 -4 0
1 11 -14 0
1 -16 0
1 6 3 0
1 -18 17 0
1 -17 0
