p wcnf 20 53 13
13 14 -16 3 0
13 -4 -15 10 0
13 -9 -3 11 -20 0
13 -10 -1 18 0
13 6 13 -16 -11 0
13 -4 1 0
13 -12 -4 -9 0
13 -9 -16 -15 13 0
13 -9 -3 16 -18 0
13 12 6 0
13 5 2 12 0
13 -9 1 8 0
13 -10 -3 0
13 3 11 20 0
13 -8 -9 13 0
13 6 9 -18 -13 0
13 12 -16 11 0
13 -10 13 0
13 -2 1 17 10 0
13 -14 18 0
13 -12 8 0
13 -3 -19 -5 -12 0
13 2 -13 0
13 -16 -5 0
13 -2 14 0
13 7 -11 0
13 7 1 -18 -11 0
13 20 -19 12 10 0
13 -6 3 -15 0
13 -10 -8 2 0
13 7 2 0
13 3 -2 0
13 -14 -5 -3 -20 0
13 7 20 11 14 0
13 -13 -10 0
13 7 14 3 0
13 13 -18 4 19 0
13 -2 9 18 7 0
13 15 -17 4 0
13 8 -16 20 0
13 13 -12 0
1 -2 19 0
1 18 16 0
1 16 0
1 11 -14 0
1 8 0
1 -16 9 0
1 6 0
1 5 0
1 15 0
1 -7 2 0
1 5 0
1 10 0
