p wcnf 13 46 16
16 -6 3 12 0
16 -6 -4 0
16 -6 -8 -9 11 0
16 4 12 0
16 -10 3 0
16 5 -2 9 12 0
16 -7 -9 0
16 -7 11 -13 0
16 1 -5 0
16 5 -11 0
16 3 1 0
16 -6 11 8 -12 0
16 13 -11 0
16 -2 7 13 0
16 11 5 2 0
16 2 -13 0
16 -5 -12 9 8 0
16 -6 -13 -5 -10 0
16 9 8 7 0
16 4 -5 1 0
16 3 2 -5 0
16 -11 6 13 0
16 1 6 -3 0
16 4 5 -1 6 0
16 8 9 -1 0
16 -3 -8 -10 7 0
16 -8 -1 0
16 8 2 -11 0
16 2 -13 0
16 -1 9 -11 0
16 3 11 13 -4 0
1 11 0
1 3 0
1 -12 2 0
1 2 0
1 13 0
1 -13 -4 0
1 4 0
1 -10 4 0
1 -13 11 0
1 -12 0
1 -1 -12 0
1 -8 -7 0
1 3 0
1 -9 0
1 7 -1 0
