p wcnf 19 53 18
18 15 11 0
18 8 -16 12 0
18 18 1 -5 0
18 -17 -11 0
18 9 18 8 0
18 -14 -16 5 2 0
18 -1 -13 -17 0
18 -5 -8 0
18 -2 18 -3 17 0
18 10 16 0
18 -9 6 13 -5 0
18 9 -10 13 -7 0
18 -4 -2 -15 -1 0
18 19 16 -9 -3 0
18 -2 -8 0
18 -19 -3 -2 15 0
18 5 -1 0
18 13 2 -12 -3 0
18 13 -8 -1 0
18 15 -11 19 12 0
18 -9 3 -6 0
18 13 4 -14 0
18 12 -9 14 -2 0
18 -3 2 10 14 0
18 16 11 -10 0
18 12 -18 -14 0
18 5 -19 3 0
18 -14 9 0
18 17 14 -19 -8 0
18 -9 -3 2 0
18 11 2 13 0
18 18 -13 15 -6 0
18 2 -18 0
18 3 -5 0
18 -13 -18 0
18 1 10 2 13 0
1 1 0
1 -1 9 0
1 1 0
1 5 0
1 6 0
1 14 0
1 11 0
1 2 0
1 -10 0
1 13 0
1 9 -13 0
1 -1 0
1 6 -13 0
1 -5 0
1 4 0
1 7 -15 0
1 -3 -9 0
