p wcnf 13 46 16
16 4 2 12 0
16 -11 -12 9 -8 0
16 -5 -12 -8 0
16 12 -1 0
16 -6 13 5 -1 0
16 -5 7 -4 1 0
16 -8 2 9 0
16 -13 -12 10 0
16 2 -4 0
16 -6 8 4 0
16 1 2 0
16 9 8 -7 1 0
16 -10 4 -2 0
16 -13 3 11 0
16 8 4 9 -12 0
16 1 11 2 0
16 13 1 8 0
16 -7 -4 -12 0
16 -12 4 9 -7 0
16 10 5 2 -1 0
16 -4 10 -12 -3 0
16 -6 8 -12 0
16 -11 -10 -7 0
16 11 4 5 -10 0
16 -6 7 2 -4 0
16 -6 5 -3 -9 0
16 9 3 12 0
16 8 -12 -10 1 0
16 7 -9 0
16 -4 1 0
16 -13 6 0
1 -2 0
1 6 12 0
1 -5 0
1 -1 0
1 3 -13 0
1 2 0
1 -11 -8 0
1 1 0
1 7 0
1 12 0
1 -1 0
1 9 3 0
1 4 0
1 -3 0
1 -3 0
