p wcnf 15 58 15
15 -5 -10 11 0
15 -2 -14 5 0
15 -11 8 -12 9 0
15 10 1 -3 0
15 -3 9 -7 -12 0
15 -12 13 11 -10 0
15 -13 12 2 0
15 -1 -11 -15 0
15 7 -14 0
15 -6 -15 0
15 -11 -3 14 -4 0
15 1 4 0
15 -13 -7 -5 -12 0
15 -8 -2 3 -10 0
15 15 -9 -6 0
15 -4 -12 0
15 -10 7 -6 0
15 3 8 0
15 6 -14 -8 -11 0
15 2 12 0
15 -10 2 6 0
15 15 -11 3 12 0
15 -9 -14 -10 0
15 -9 -5 10 0
15 -8 -5 13 0
15 5 14 0
15 -14 -8 5 6 0
15 1 -12 -15 -10 0
15 -10 14 -8 11 0
15 14 10 12 -9 0
15 2 -15 14 0
15 -4 -15 0
15 1 -12 0
15 11 6 15 -10 0
15 -4 -9 0
15 -9 -3 15 1 0
15 1 9 0
15 5 -14 12 0
15 -4 -13 -5 -7 0
15 -1 9 -15 0
15 2 -9 0
15 1 -8 0
15 -10 8 0
15 -11 -1 0
1 2 0
1 11 7 0
1 3 0
1 1 -14 0
1 -10 0
1 12 0
1 7 -8 0
1 6 12 0
1 1 0
1 13 11 0
1 -2 6 0
1 -10 0
1 -4 0
1 -14 0
