p wcnf 17 43 10
10 9 12 0
10 -2 -7 -4 0
10 7 -13 -9 -15 0
10 4 -3 -14 0
10 14 1 17 -10 0
10 15 -7 0
10 6 12 -14 -1 0
10 9 4 13 0
10 12 -8 -2 0
10 1 -6 -7 -16 0
10 1 -17 0
10 2 4 -11 0
10 1 -3 9 0
10 -4 -7 -17 9 0
10 9 -8 5 0
10 10 17 16 0
10 1 -2 0
10 -15 -14 0
10 -13 -10 11 -7 0
10 1 -11 -6 0
10 7 4 -1 16 0
10 -1 15 0
10 1 12 0
10 3 -6 0
10 3 5 -10 12 0
10 -5 4 0
10 8 -10 12 0
10 -1 -12 -14 0
10 2 16 -15 0
10 8 11 -1 5 0
10 -16 9 0
10 8 4 7 -12 0
10 -2 -10 0
10 -15 8 -11 -4 0
1 13 0
1 -17 0
1 3 17 0
1 -7 0
1 13 0
1 -15 -11 0
1 7 0
1 1 0
1 5 0
