p wcnf 19 49 19
19 -19 11 1 0
19 -15 -9 0
19 10 17 -4 0
19 -15 17 -3 4 0
19 12 2 7 15 0
19 16 -19 0
19 -9 -2 -11 0
19 8 17 9 16 0
19 12 4 0
19 -11 10 0
19 -3 5 -15 0
19 14 -5 0
19 5 13 -3 -2 0
19 -17 1 -8 0
19 -4 19 9 0
19 8 5 -13 0
19 -18 14 6 8 0
19 19 -13 14 1 0
19 4 7 5 0
19 9 18 1 0
19 -12 1 -5 -18 0
19 6 -7 -9 0
19 15 -7 -16 0
19 5 13 8 -19 0
19 5 -4 -3 -14 0
19 -8 -16 10 0
19 7 -8 0
19 -5 16 0
19 3 2 17 -11 0
19 15 -12 3 0
19 -9 -3 0
1 -13 0
1 18 10 0
1 -11 0
1 -13 0
1 -8 0
1 -16 0
1 19 0
1 4 0
1 -11 0
1 -1 -16 0
1 -11 19 0
1 -7 0
1 -17 0
1 -5 0
1 -6 0
1 12 0
1 9 0
1 -10 15 0
