p wcnf 18 48 18
18 8 -4 6 0
18 17 -9 -4 0
18 17 10 0
18 -10 -11 -14 3 0
18 16 -13 0
18 6 16 -7 12 0
18 -11 1 0
18 -18 7 10 0
18 10 -5 11 0
18 -7 -4 0
18 4 1 0
18 18 -7 12 11 0
18 12 10 6 0
18 -6 -16 14 -11 0
18 16 -18 -8 0
18 16 8 3 0
18 8 -12 0
18 1 15 12 0
18 -14 17 2 7 0
18 1 -16 11 -8 0
18 -5 6 0
18 5 -13 17 0
18 -12 10 -16 0
18 -18 7 9 -15 0
18 11 -13 8 -2 0
18 2 -16 12 7 0
18 -11 18 -6 0
18 9 -11 -10 -15 0
18 -16 8 0
18 8 15 3 -11 0
18 -6 -15 -1 0
1 3 0
1 5 0
1 10 8 0
1 15 0
1 -2 0
1 -17 0
1 -9 6 0
1 -2 0
1 -11 0
1 6 0
1 -18 0
1 -16 -15 0
1 -9 0
1 13 -12 0
1 6 0
1 12 0
1 -11 0
