p wcnf 18 47 16
16 -13 -2 -15 0
16 -8 17 -7 -14 0
16 16 11 -18 -9 0
16 -12 -10 0
16 -13 -12 3 -15 0
16 -5 -12 0
16 -3 -17 -5 -16 0
16 9 -13 0
16 4 18 -12 0
16 4 -6 -2 -1 0
16 4 -5 0
16 -18 -17 5 -4 0
16 11 -1 0
16 13 18 -15 -4 0
16 -15 9 0
16 14 8 -17 0
16 15 7 -10 0
16 8 13 1 2 0
16 -1 -6 14 11 0
16 -14 4 7 -17 0
16 7 8 -16 0
16 -12 -9 0
16 -14 6 0
16 6 -14 8 3 0
16 2 12 16 -14 0
16 17 8 0
16 1 9 0
16 -11 -6 0
16 6 -13 0
16 -2 -14 -9 12 0
16 -8 -10 -2 -15 0
16 -8 10 0
1 17 0
1 15 0
1 17 2 0
1 -18 0
1 9 0
1 -11 0
1 2 0
1 -6 11 0
1 9 0
1 -12 0
1 5 0
1 -11 0
1 -2 0
1 -15 1 0
1 1 0
