p wcnf 17 64 18
18 7 12 -13 -3 0
18 -12 -13 0
18 8 -3 0
18 1 2 8 0
18 16 -9 -12 0
18 -9 -4 14 12 0
18 -5 4 -9 0
18 -5 13 11 0
18 -11 3 -15 -8 0
18 5 15 0
18 8 -16 -9 -12 0
18 10 9 13 5 0
18 -14 12 -5 2 0
18 -7 15 8 1 0
18 -6 14 0
18 -3 -17 0
18 -10 -2 0
18 7 6 -11 0
18 -8 11 -6 9 0
18 -13 7 -16 0
18 9 4 2 0
18 3 11 6 0
18 -17 -13 -14 -4 0
18 -3 -9 -5 0
18 12 -2 0
18 -4 -5 -9 -2 0
18 -17 -11 -8 0
18 -7 14 0
18 -14 -11 0
18 10 -8 15 -2 0
18 16 11 14 0
18 17 12 8 0
18 -4 14 0
18 -16 -12 0
18 11 16 -10 -7 0
18 -7 -8 9 5 0
18 11 -5 10 9 0
18 8 -16 0
18 -9 -1 -4 0
18 2 -4 6 -13 0
18 -7 -15 0
18 -1 13 0
18 14 4 17 0
18 -2 -11 16 0
18 -11 1 6 0
18 9 -13 17 7 0
18 -11 8 0
1 -3 0
1 8 -16 0
1 -2 -15 0
1 1 0
1 10 17 0
1 -11 0
1 -9 0
1 7 0
1 -2 0
1 -3 0
1 11 0
1 -13 0
1 -12 0
1 -16 0
1 17 0
1 1 0
1 5 -8 0
