p wcnf 13 45 15
15 -9 -1 -11 13 0
15 -4 9 0
15 -11 -8 -6 -5 0
15 -4 1 0
15 11 9 0
15 -5 1 0
15 13 -11 -4 0
15 7 -3 0
15 11 -7 -4 -6 0
15 -8 7 -13 -2 0
15 -5 1 0
15 13 3 -10 -12 0
15 2 13 5 -11 0
15 12 2 0
15 -2 -4 6 1 0
15 7 8 -2 0
15 5 -9 0
15 -11 -7 8 3 0
15 -12 -10 9 7 0
15 -7 9 -11 -1 0
15 -12 -13 -6 7 0
15 -8 -3 -5 0
15 -6 13 -2 0
15 3 1 11 -13 0
15 -5 -12 3 8 0
15 -7 -6 2 0
15 -7 9 0
15 9 -2 -8 -6 0
15 -3 -9 -7 4 0
15 -12 10 0
15 -11 8 1 0
1 4 6 0
1 -6 -4 0
1 -8 0
1 -6 0
1 2 0
1 -3 0
1 10 2 0
1 -4 0
1 4 0
1 -7 0
1 4 0
1 1 -5 0
1 -5 2 0
1 10 0
