p wcnf 18 55 15
15 -5 -3 0
15 -18 -15 14 0
15 -6 -11 0
15 17 -16 2 0
15 13 15 2 6 0
15 15 12 13 0
15 1 18 0
15 11 7 0
15 14 -12 -8 0
15 -17 6 12 3 0
15 -3 5 0
15 10 11 -4 -6 0
15 2 -15 0
15 6 -13 -17 -2 0
15 17 -7 -16 0
15 -17 13 0
15 -10 -9 0
15 -14 7 15 -2 0
15 2 17 9 12 0
15 -15 -1 12 13 0
15 14 -4 11 3 0
15 2 10 15 0
15 2 11 0
15 -4 10 3 16 0
15 -10 -9 -11 0
15 -10 18 -7 0
15 -12 -6 0
15 -3 -1 18 0
15 4 -12 0
15 13 8 15 0
15 -13 -10 14 0
15 8 -16 0
15 -11 -15 -1 0
15 -12 18 -15 0
15 -15 -10 0
15 -2 -11 1 12 0
15 4 14 -6 0
15 -8 16 0
15 -15 -2 12 16 0
15 -1 -13 -17 0
15 -16 2 0
1 17 10 0
1 8 0
1 11 -14 0
1 -12 0
1 6 0
1 1 0
1 -2 0
1 11 -10 0
1 11 0
1 -2 0
1 16 6 0
1 17 0
1 -11 -13 0
1 5 0
