p wcnf 17 54 11
11 -16 8 0
11 -15 3 0
11 11 4 0
11 3 11 14 -16 0
11 -3 16 10 0
11 15 -8 0
11 16 -3 13 0
11 8 10 0
11 7 8 0
11 1 -16 15 0
11 -16 -13 1 0
11 -8 17 10 0
11 2 6 -10 0
11 -4 14 8 -10 0
11 2 -10 -1 0
11 5 -11 9 -1 0
11 -15 5 7 0
11 10 3 -4 -2 0
11 15 -1 17 -9 0
11 5 13 -3 0
11 -16 5 0
11 7 -16 -15 0
11 8 5 -9 0
11 9 -17 -12 -11 0
11 8 -4 0
11 -1 -4 -11 15 0
11 16 3 -6 11 0
11 15 3 0
11 4 14 -6 0
11 10 17 -9 11 0
11 -7 8 6 17 0
11 -9 6 -11 0
11 -12 -2 8 -6 0
11 3 5 2 1 0
11 -16 3 4 7 0
11 7 -6 12 0
11 13 -8 0
11 -17 3 0
11 -17 -7 0
11 -11 14 -17 2 0
11 17 -3 0
11 5 13 0
11 -14 -15 0
11 -6 2 -4 16 0
1 -10 0
1 -1 0
1 10 0
1 -12 0
1 -2 0
1 13 0
1 -9 0
1 -15 0
1 -11 1 0
1 12 0
