p wcnf 20 57 21
21 -8 -16 5 -19 0
21 11 7 -3 -9 0
21 -1 -7 -17 2 0
21 -15 7 -13 0
21 13 19 0
21 7 -20 0
21 -4 11 0
21 -9 -18 13 19 0
21 -12 -5 -16 11 0
21 -9 -18 0
21 20 -18 -4 -13 0
21 4 5 -12 -19 0
21 10 2 -5 0
21 -5 9 -13 0
21 -20 1 5 0
21 6 16 -19 0
21 5 -18 16 2 0
21 16 17 5 -4 0
21 -12 -6 -14 0
21 -1 3 0
21 -11 13 -18 -17 0
21 -20 -16 0
21 7 -8 -12 0
21 3 2 12 -4 0
21 11 -13 12 0
21 13 -6 0
21 -4 -5 0
21 -3 -14 0
21 1 17 0
21 -7 6 0
21 19 -10 -18 7 0
21 16 -1 -8 5 0
21 -2 8 -10 -6 0
21 -4 18 -15 0
21 -10 -19 -20 6 0
21 -4 3 -8 -14 0
21 -8 20 -14 0
1 -1 0
1 -5 0
1 16 0
1 10 -9 0
1 14 0
1 14 0
1 9 0
1 -16 0
1 20 -16 0
1 4 0
1 6 -18 0
1 7 0
1 3 0
1 11 0
1 -2 -16 0
1 4 0
1 -2 -7 0
1 -4 3 0
1 -19 0
1 -3 0
