p wcnf 16 39 10
10 3 -13 -15 -10 0
10 -10 -1 12 0
10 5 -7 -10 0
10 -1 -4 3 -15 0
10 13 9 0
10 1 -2 -4 0
10 1 16 0
10 -7 10 -13 0
10 -5 9 12 0
10 5 -3 -1 13 0
10 -16 3 -7 0
10 -13 -8 4 1 0
10 3 1 -4 0
10 -14 -10 7 -15 0
10 -6 14 10 -15 0
10 6 9 8 1 0
10 12 -1 4 3 0
10 -10 3 6 0
10 16 4 0
10 6 9 -3 16 0
10 -14 -3 -16 0
10 13 10 0
10 3 15 11 -10 0
10 -8 16 0
10 -11 -8 -3 7 0
10 5 -6 -14 0
10 -15 -13 1 0
10 9 -15 12 0
10 8 -13 0
10 -8 4 11 -10 0
1 -15 0
1 -1 0
1 2 15 0
1 -9 4 0
1 -10 4 0
1 -8 3 0
1 4 0
1 -11 13 0
1 3 0
