p wcnf 17 44 14
14 2 -7 0
14 6 -2 0
14 15 4 0
14 -15 -10 0
14 10 -13 -6 2 0
14 -8 4 15 0
14 9 -10 1 -3 0
14 -8 -10 0
14 -1 5 -8 16 0
14 4 -9 16 8 0
14 -10 -16 -11 -3 0
14 -13 -7 0
14 7 17 3 0
14 -8 -5 -4 -12 0
14 15 2 -5 14 0
14 -16 13 0
14 4 -10 -9 -11 0
14 1 13 14 -5 0
14 -15 1 3 -7 0
14 -11 5 -2 3 0
14 11 -17 0
14 1 -6 -17 4 0
14 16 -4 0
14 -5 -12 0
14 -16 -5 14 7 0
14 -17 -15 16 -5 0
14 10 -2 -14 15 0
14 -9 10 -4 0
14 -14 -3 -7 0
14 9 -13 -5 8 0
14 17 -10 5 1 0
1 17 0
1 -5 0
1 -4 0
1 -7 0
1 -1 0
1 3 7 0
1 -14 0
1 -12 0
1 9 -7 0
1 -16 0
1 -3 0
1 -16 0
1 -11 7 0
