p wcnf 17 63 13
13 -12 3 -2 0
13 13 7 -12 0
13 17 16 -11 0
13 -4 -16 2 0
13 -16 -9 7 0
13 15 -1 0
13 -17 -11 16 -2 0
13 -15 11 -6 0
13 11 14 0
13 -12 9 16 0
13 -4 14 -7 0
13 10 -12 0
13 -2 -12 -11 0
13 -1 -10 6 -15 0
13 16 -4 -10 -5 0
13 3 -11 0
13 -7 8 -14 0
13 -16 14 0
13 16 -7 -10 0
13 8 11 -1 2 0
13 -10 -12 -6 4 0
13 8 9 4 2 0
13 3 -13 0
13 -15 4 0
13 17 12 8 0
13 10 -2 3 0
13 -6 2 0
13 15 -4 7 3 0
13 -5 13 0
13 -4 14 2 -11 0
13 -13 2 7 -14 0
13 13 -14 11 -7 0
13 -3 -5 17 -1 0
13 9 1 -7 -10 0
13 -17 -15 -6 12 0
13 11 2 0
13 -14 10 -7 -1 0
13 -13 -17 -7 11 0
13 13 -15 5 8 0
13 7 -2 -3 0
13 -10 -8 -14 0
13 3 -8 -17 -5 0
13 -6 14 17 -10 0
13 -5 -14 8 -3 0
13 10 -13 -11 -17 0
13 -11 14 3 0
13 15 5 0
13 8 -6 0
13 -2 16 13 4 0
13 -1 -11 9 14 0
13 -16 -1 0
1 -1 0
1 -10 -12 0
1 -2 0
1 -8 0
1 -4 0
1 4 0
1 -7 0
1 2 0
1 -16 0
1 3 0
1 17 13 0
1 -2 0
