p wcnf 12 45 19
19 1 -4 -12 0
19 -2 3 0
19 -9 -8 0
19 -2 -4 12 0
19 -11 12 6 -9 0
19 3 4 8 1 0
19 -10 -1 2 0
19 6 -7 0
19 4 6 2 9 0
19 -7 12 8 0
19 2 5 9 8 0
19 3 -8 0
19 -12 1 11 0
19 4 -11 9 0
19 -2 -5 0
19 11 -7 -8 0
19 10 11 0
19 -6 -5 0
19 6 -3 10 7 0
19 12 8 -10 0
19 -2 12 7 -1 0
19 10 8 -6 7 0
19 5 9 -8 6 0
19 -4 -10 0
19 -5 11 -7 -3 0
19 5 -11 -12 0
19 8 -6 3 0
1 12 0
1 5 4 0
1 4 0
1 -8 0
1 3 0
1 -9 0
1 -1 0
1 10 0
1 8 0
1 -4 -11 0
1 -5 0
1 12 8 0
1 -10 0
1 -12 0
1 -7 0
1 -11 1 0
1 -9 0
1 -6 0
