p wcnf 18 64 12
12 -12 -1 -8 0
12 -4 -2 0
12 13 -4 0
12 6 13 0
12 -1 14 -8 0
12 2 3 0
12 15 16 6 -8 0
12 2 8 0
12 -5 13 -11 -7 0
12 -16 7 11 0
12 -1 -15 5 0
12 4 -8 0
12 -5 -1 9 14 0
12 14 13 0
12 17 10 18 -13 0
12 5 -17 -13 0
12 17 12 14 0
12 -14 -1 -18 0
12 -7 -16 0
12 -10 -15 0
12 -17 -3 8 15 0
12 15 -11 0
12 -15 6 -17 0
12 -15 -12 -2 6 0
12 -11 -6 8 4 0
12 2 10 -3 0
12 -14 -9 6 0
12 -11 3 -2 0
12 13 18 -7 2 0
12 -3 -7 -9 0
12 12 -14 1 10 0
12 8 12 -16 -7 0
12 -7 3 -8 6 0
12 9 -3 5 -18 0
12 -1 18 -14 0
12 -9 1 0
12 -11 15 -2 -17 0
12 -10 -5 0
12 -8 -5 0
12 8 4 -9 0
12 2 -11 -10 6 0
12 7 -14 0
12 -2 -3 -5 14 0
12 2 12 -7 0
12 16 8 -1 18 0
12 -3 15 14 18 0
12 -16 -10 -6 0
12 -10 9 0
12 2 -16 -3 0
12 18 -17 12 0
12 -5 -2 3 -14 0
12 -4 16 0
12 15 5 -16 -14 0
1 -18 1 0
1 -7 18 0
1 13 0
1 14 0
1 9 -4 0
1 5 0
1 -18 0
1 -2 0
1 6 0
1 -18 0
1 2 0
