p wcnf 20 43 7
7 18 -12 -20 0
7 -13 14 0
7 -18 11 13 -17 0
7 10 -2 0
7 -4 -8 0
7 -18 -4 15 -20 0
7 1 -3 10 19 0
7 -18 13 -3 0
7 -4 14 0
7 9 4 0
7 16 19 0
7 -15 7 0
7 -16 12 -19 9 0
7 14 -3 15 -1 0
7 7 3 -11 0
7 -13 -7 6 -16 0
7 20 -7 15 0
7 -14 -6 -17 0
7 -7 4 0
7 -20 17 13 2 0
7 8 15 5 0
7 18 15 0
7 -6 -14 0
7 -10 13 0
7 7 -16 0
7 10 -19 9 0
7 -8 -20 18 -17 0
7 3 19 16 0
7 12 17 0
7 -7 -11 17 0
7 11 7 -13 -12 0
7 -19 -10 7 0
7 16 -3 -5 19 0
7 -9 8 0
7 16 -13 -9 0
7 14 -16 1 17 0
7 3 1 -17 0
1 -10 7 0
1 -6 -7 0
1 -5 0
1 5 10 0
1 6 0
1 19 0
