p wcnf 14 57 19
19 -4 10 0
19 9 -4 -1 0
19 9 -10 -4 12 0
19 2 -1 0
19 7 2 0
19 -9 -14 8 0
19 -4 -13 0
19 -10 3 -1 -9 0
19 7 -6 -3 12 0
19 -11 5 0
19 -10 8 13 -4 0
19 5 1 -9 -7 0
19 -10 14 -4 2 0
19 -7 -14 0
19 11 6 10 0
19 -7 -13 -8 0
19 14 -6 -13 0
19 3 -9 -14 13 0
19 10 14 -5 -11 0
19 6 11 -10 -8 0
19 -14 -1 0
19 14 12 0
19 -6 -3 10 0
19 -4 -3 8 10 0
19 12 14 -11 -6 0
19 5 9 0
19 8 10 0
19 -4 -6 0
19 -6 2 0
19 5 4 -10 9 0
19 6 -13 -10 -8 0
19 5 -10 0
19 5 12 13 7 0
19 9 7 -10 0
19 -11 12 9 -6 0
19 9 -5 11 0
19 -14 5 -7 -13 0
19 14 5 12 0
19 8 -10 -2 0
1 -7 0
1 7 0
1 14 0
1 -4 -6 0
1 8 -4 0
1 -12 -6 0
1 2 0
1 -5 0
1 6 0
1 9 -8 0
1 10 11 0
1 4 0
1 12 8 0
1 -7 0
1 -11 0
1 -14 0
1 5 0
1 12 4 0
