p wcnf 18 52 8
8 9 -3 18 0
8 2 -15 -4 -7 0
8 -8 15 -4 17 0
8 -15 11 -17 3 0
8 -3 -9 5 -2 0
8 -13 12 5 -11 0
8 -9 -12 3 -18 0
8 -9 -17 -14 -10 0
8 -14 2 17 0
8 18 2 9 13 0
8 -12 -2 0
8 -18 15 0
8 3 1 13 0
8 -13 3 0
8 -15 -16 0
8 3 -5 0
8 1 -4 -3 -16 0
8 -4 -12 -8 -10 0
8 -17 -11 0
8 15 12 14 8 0
8 -4 16 -18 0
8 1 4 -9 15 0
8 -2 5 -6 0
8 17 -5 -1 0
8 -15 -10 -8 0
8 -9 -13 6 0
8 -18 -16 6 -11 0
8 -14 -3 -9 17 0
8 -8 -5 -3 -17 0
8 -16 -4 -7 -3 0
8 -6 -16 0
8 17 -4 -18 0
8 2 7 10 0
8 -13 -10 0
8 14 6 0
8 -16 2 0
8 14 6 -9 0
8 -4 -15 0
8 15 -4 0
8 -9 -7 2 5 0
8 -9 4 0
8 -13 -6 14 0
8 -16 -11 7 0
8 11 10 0
8 2 4 -11 1 0
1 -11 -3 0
1 8 0
1 -10 4 0
1 12 0
1 -10 9 0
1 4 -16 0
1 -7 0
