p wcnf 13 43 17
17 -4 11 0
17 -8 -5 -6 0
17 7 -10 -11 0
17 -9 -6 0
17 11 3 0
17 13 10 0
17 -4 7 2 -10 0
17 2 8 -3 0
17 6 9 7 4 0
17 -2 -10 8 -13 0
17 -2 11 0
17 -12 -4 -9 -3 0
17 -2 -5 -4 7 0
17 -12 2 5 0
17 -4 -7 3 -13 0
17 6 -2 10 13 0
17 -8 -2 9 1 0
17 1 -8 12 0
17 -1 5 12 0
17 -8 -6 2 0
17 -1 5 13 10 0
17 -11 1 -6 0
17 6 -10 8 11 0
17 1 4 -8 0
17 11 7 -2 8 0
17 4 -1 5 0
17 -6 -1 5 0
1 -11 0
1 1 0
1 -10 -2 0
1 2 11 0
1 13 0
1 1 0
1 -10 13 0
1 -5 0
1 -4 0
1 3 0
1 -9 0
1 -10 0
1 -10 1 0
1 -8 0
1 -9 0
1 -2 -9 0
