p wcnf 15 59 18
18 14 -8 7 4 0
18 -1 5 0
18 -10 -5 0
18 6 -5 8 -10 0
18 13 10 -4 0
18 3 -5 -6 13 0
18 10 -11 -8 0
18 5 -1 3 6 0
18 14 8 0
18 2 4 0
18 -3 15 -2 0
18 6 13 0
18 7 3 -8 -15 0
18 -2 -1 5 0
18 -12 -4 -9 -14 0
18 14 -6 5 0
18 12 -14 15 3 0
18 -6 2 -10 -11 0
18 -14 6 10 13 0
18 -8 -15 -3 0
18 12 -7 8 2 0
18 8 -10 -14 0
18 -15 -4 14 0
18 -9 -1 -15 0
18 -3 9 1 0
18 9 13 0
18 -12 7 11 0
18 8 2 7 13 0
18 -15 12 10 0
18 5 2 -7 -12 0
18 -2 3 -7 -4 0
18 12 5 -13 0
18 5 -14 13 11 0
18 8 6 -2 0
18 12 -6 0
18 -3 13 0
18 15 9 2 0
18 3 4 7 0
18 13 -4 -3 14 0
18 -6 -15 0
18 1 -2 8 3 0
18 5 -12 8 0
1 -13 0
1 -3 0
1 -15 -8 0
1 9 0
1 -3 -6 0
1 11 0
1 13 0
1 -3 -9 0
1 5 4 0
1 -3 7 0
1 7 0
1 -7 0
1 -2 -11 0
1 -10 0
1 6 0
1 -5 0
1 -9 0
