p wcnf 12 49 19
19 3 10 6 -9 0
19 12 -9 -1 0
19 -8 12 2 -1 0
19 -7 6 3 0
19 8 -7 -3 11 0
19 -5 3 -2 0
19 -2 12 0
19 11 1 -7 6 0
19 6 -9 2 0
19 -2 -6 0
19 9 -5 0
19 -9 -1 0
19 10 -6 -5 0
19 -11 -7 1 8 0
19 9 -6 2 0
19 -12 -3 5 8 0
19 -5 4 0
19 -2 -4 0
19 -2 7 8 0
19 -6 -2 3 0
19 4 -10 0
19 -2 -6 5 0
19 9 -10 1 6 0
19 3 8 -7 0
19 6 -2 0
19 -2 -4 0
19 8 -4 -6 2 0
19 11 -8 0
19 11 1 2 9 0
19 6 4 8 -11 0
19 -11 9 -4 0
1 -10 2 0
1 -3 6 0
1 -1 0
1 -1 7 0
1 5 0
1 7 0
1 2 0
1 2 0
1 4 -6 0
1 6 0
1 6 5 0
1 5 7 0
1 -2 11 0
1 -8 3 0
1 11 0
1 -12 -4 0
1 12 0
1 -1 2 0
