p wcnf 18 58 19
19 13 4 0
19 -7 9 0
19 -16 13 -2 0
19 -9 13 -7 0
19 -6 9 17 0
19 -6 -11 0
19 -8 16 11 0
19 -4 13 -17 -1 0
19 -12 -14 0
19 17 -13 -18 -12 0
19 -14 12 -1 0
19 -17 -18 0
19 11 -5 9 0
19 -18 -4 14 -17 0
19 -11 -8 0
19 18 -14 -3 4 0
19 11 17 -5 -9 0
19 8 -6 0
19 -15 -8 0
19 -2 11 0
19 8 1 -6 0
19 -13 11 -5 -8 0
19 4 7 -18 0
19 -18 -15 -13 0
19 9 10 -3 8 0
19 -7 -12 0
19 2 8 0
19 -13 2 6 -4 0
19 13 -17 -8 -16 0
19 -18 -14 6 -15 0
19 4 12 0
19 7 -16 0
19 12 -3 -2 0
19 14 -7 0
19 -12 15 0
19 9 13 -6 15 0
19 -3 -7 0
19 9 -16 0
19 9 16 17 0
19 15 17 8 5 0
1 -11 0
1 -8 0
1 -15 0
1 -4 0
1 -18 5 0
1 6 16 0
1 -17 0
1 -11 5 0
1 2 0
1 -1 -4 0
1 -6 -7 0
1 -2 0
1 -6 0
1 -13 0
1 -14 0
1 6 0
1 5 0
1 -4 18 0
