p wcnf 18 55 15
15 -10 14 -1 0
15 7 9 -14 11 0
15 -5 17 -6 4 0
15 16 8 0
15 5 14 0
15 5 -2 6 12 0
15 -8 14 15 0
15 -8 -13 0
15 -13 -4 5 2 0
15 -10 -4 0
15 8 -15 12 0
15 -1 -11 -10 0
15 -12 9 -11 4 0
15 -12 -17 0
15 4 3 -6 0
15 7 6 8 -4 0
15 1 15 -13 -12 0
15 -4 15 -5 0
15 -17 9 11 0
15 6 -10 15 -1 0
15 -8 13 10 0
15 -3 -14 -4 0
15 -9 11 -4 0
15 -12 -13 0
15 -8 4 9 0
15 -1 5 -7 -3 0
15 -11 -17 -10 -3 0
15 10 -18 0
15 2 13 -7 12 0
15 -15 6 -17 0
15 -13 -6 14 0
15 9 -14 -4 0
15 -4 17 -11 -1 0
15 10 -16 17 0
15 15 18 0
15 -17 16 -10 18 0
15 -12 -16 17 -10 0
15 3 7 0
15 -9 11 -5 -6 0
15 -10 17 0
15 15 5 0
1 8 0
1 15 13 0
1 11 12 0
1 14 0
1 -15 0
1 15 0
1 8 2 0
1 16 0
1 -7 0
1 8 3 0
1 2 0
1 -1 0
1 12 -14 0
1 -6 0
