p wcnf 17 62 14
14 17 15 0
14 16 14 -9 4 0
14 16 11 13 0
14 11 -7 -4 0
14 2 14 -8 9 0
14 -5 4 0
14 7 2 15 13 0
14 -7 -17 14 6 0
14 -16 7 0
14 -6 -3 1 0
14 16 4 9 0
14 17 -14 -10 -13 0
14 -12 11 0
14 -15 -10 -12 16 0
14 -14 4 0
14 -12 6 -8 -10 0
14 12 -6 -7 -9 0
14 1 -13 16 0
14 14 15 -6 0
14 7 -10 -6 11 0
14 -14 -11 7 -5 0
14 -14 -4 -2 0
14 17 4 -10 0
14 -2 -15 5 -16 0
14 -5 11 -3 -8 0
14 11 10 0
14 7 15 -12 13 0
14 1 9 15 5 0
14 14 -3 7 9 0
14 -5 -7 0
14 3 17 0
14 8 -11 10 16 0
14 11 17 0
14 -3 4 0
14 11 -2 14 0
14 -7 -17 16 0
14 -14 -16 -10 0
14 10 8 16 9 0
14 -9 16 0
14 -9 -4 -14 0
14 16 -14 0
14 -2 -9 0
14 -9 -11 0
14 -2 5 11 0
14 -12 15 8 17 0
14 5 -9 7 16 0
14 -10 -3 2 0
14 13 12 0
14 17 10 -2 -16 0
1 10 0
1 7 0
1 -4 0
1 -1 0
1 4 0
1 -7 -9 0
1 -8 2 0
1 -14 6 0
1 -15 3 0
1 -12 -7 0
1 -7 -15 0
1 15 0
1 -11 0
