p wcnf 12 45 15
15 10 7 9 0
15 -10 3 0
15 11 -7 6 -8 0
15 -10 -7 0
15 9 -6 0
15 -1 7 -8 0
15 -6 -3 0
15 4 -3 5 0
15 -1 8 5 0
15 -12 6 -5 0
15 -3 11 -5 0
15 2 11 0
15 3 -2 1 0
15 -12 8 6 -9 0
15 2 -3 11 -10 0
15 -4 -1 11 -8 0
15 -1 -12 0
15 9 12 0
15 -5 7 0
15 1 9 -11 0
15 -5 -6 -3 -2 0
15 11 6 -3 -7 0
15 7 -2 -1 9 0
15 5 8 -6 0
15 -12 -3 0
15 6 11 -12 0
15 3 -1 12 -4 0
15 11 -8 3 4 0
15 10 1 -4 11 0
15 9 12 0
15 -10 5 9 1 0
1 8 4 0
1 3 0
1 -1 0
1 -3 -6 0
1 -10 0
1 -5 0
1 -9 0
1 -9 0
1 -10 -4 0
1 -4 0
1 -4 0
1 10 0
1 9 2 0
1 -5 -11 0
