p wcnf 17 61 16
16 2 17 9 0
16 -7 12 0
16 10 13 -17 0
16 -8 -9 0
16 -14 6 -2 -9 0
16 -16 4 0
16 -7 11 10 14 0
16 16 -2 11 0
16 11 -1 0
16 -7 14 -9 0
16 15 9 4 0
16 10 8 -7 14 0
16 10 4 -13 0
16 2 -7 4 0
16 -11 -3 0
16 16 4 17 10 0
16 11 15 -14 13 0
16 4 15 17 0
16 2 15 0
16 -13 14 2 -7 0
16 -12 10 13 0
16 4 -16 -3 -9 0
16 -11 -7 -2 -15 0
16 -4 -17 0
16 -9 -2 -13 -1 0
16 -9 4 5 0
16 -16 8 -3 14 0
16 4 -8 0
16 -12 -6 0
16 -10 15 0
16 -2 17 5 1 0
16 9 -17 -8 -16 0
16 2 4 0
16 6 -17 0
16 -13 -3 0
16 13 5 -14 0
16 1 6 13 0
16 -2 -3 -1 8 0
16 2 15 -1 -8 0
16 2 -5 -10 0
16 -10 1 13 0
16 12 4 -13 10 0
16 -6 -3 0
16 -11 -3 0
16 -6 -5 0
16 1 8 -4 -13 0
1 13 0
1 -6 3 0
1 4 -15 0
1 -4 0
1 -16 -3 0
1 -2 0
1 13 -15 0
1 -10 -2 0
1 15 0
1 -6 0
1 -4 -5 0
1 -15 0
1 -1 -13 0
1 -10 0
1 -6 0
