p wcnf 11 42 13
13 -2 -8 -1 0
13 -7 6 11 9 0
13 2 -10 0
13 -10 6 7 0
13 4 -3 0
13 -4 -11 -6 0
13 9 10 -4 0
13 -5 -6 11 -1 0
13 -10 1 -2 -6 0
13 3 -2 7 0
13 -7 11 0
13 -8 -6 -9 -3 0
13 -1 9 5 0
13 -5 2 -6 0
13 -10 -6 0
13 -6 7 4 -10 0
13 5 4 -1 10 0
13 8 -5 4 -11 0
13 -6 3 -9 10 0
13 -10 -8 -7 0
13 3 -8 -1 0
13 9 1 8 0
13 2 11 0
13 -1 2 -5 10 0
13 -4 3 0
13 2 -10 4 0
13 7 -1 0
13 10 -5 8 0
13 8 -9 -3 0
13 -3 -6 0
1 -2 5 0
1 6 0
1 -8 0
1 7 -2 0
1 6 0
1 -7 0
1 -8 0
1 7 0
1 8 0
1 8 11 0
1 -6 0
1 -7 1 0
