p wcnf 17 45 15
15 -15 13 -8 0
15 17 3 7 -5 0
15 -7 -5 6 0
15 -7 -8 -6 0
15 -3 11 0
15 10 13 -14 0
15 10 6 0
15 -9 12 10 -13 0
15 -7 9 -8 3 0
15 15 12 0
15 -17 12 -2 -11 0
15 5 -13 0
15 9 13 0
15 -8 -15 13 0
15 -9 16 0
15 7 -17 -1 0
15 2 -17 12 0
15 10 -1 -5 0
15 -15 9 6 8 0
15 1 16 10 6 0
15 -8 -9 17 1 0
15 3 -9 5 8 0
15 12 -10 0
15 8 2 3 0
15 -15 10 3 9 0
15 -2 5 -14 -9 0
15 -1 -7 8 -3 0
15 -15 -11 0
15 15 -16 9 0
15 -7 4 2 0
15 15 -14 5 -3 0
1 6 0
1 15 -8 0
1 3 5 0
1 5 16 0
1 9 0
1 -5 17 0
1 -12 0
1 -17 11 0
1 17 0
1 4 -2 0
1 -11 0
1 -1 17 0
1 1 -4 0
1 6 0
