p wcnf 11 48 21
21 11 -6 2 0
21 1 -10 -7 0
21 4 5 0
21 -7 -1 8 -10 0
21 5 -8 2 0
21 6 3 1 -2 0
21 5 9 0
21 6 -4 0
21 6 -2 -3 0
21 4 -1 0
21 10 7 -5 0
21 7 5 -2 -4 0
21 4 6 -2 11 0
21 5 -6 -4 11 0
21 1 11 0
21 4 2 -6 -9 0
21 -4 3 2 -7 0
21 -6 2 1 -7 0
21 -3 -9 7 0
21 2 -1 -6 8 0
21 2 7 0
21 7 1 6 0
21 3 -10 -6 2 0
21 -5 7 0
21 -9 -3 0
21 1 5 0
21 3 9 0
21 4 -1 -5 6 0
1 -11 0
1 -5 0
1 2 9 0
1 -4 0
1 10 0
1 -7 0
1 -1 0
1 5 0
1 11 0
1 4 -2 0
1 10 0
1 -8 0
1 6 0
1 7 0
1 -8 0
1 8 0
1 3 0
1 -10 -5 0
1 -2 -3 0
1 -4 0
