p wcnf 19 53 14
14 5 -18 -11 -4 0
14 -13 -9 1 17 0
14 -2 5 0
14 6 -9 -14 -1 0
14 -17 -19 0
14 -5 3 -17 0
14 -14 18 -1 0
14 14 -12 0
14 16 -4 -8 0
14 -4 -12 -18 0
14 -11 -15 6 0
14 5 -3 0
14 10 -11 -19 -17 0
14 11 -2 -10 0
14 -7 13 6 15 0
14 -10 3 -9 0
14 17 -14 5 -1 0
14 -11 4 -7 -5 0
14 -9 17 0
14 18 9 -6 -19 0
14 12 -14 0
14 -6 5 -18 17 0
14 -15 -13 -5 0
14 6 1 18 7 0
14 14 3 0
14 14 -16 0
14 9 16 8 -1 0
14 2 8 0
14 -17 9 -11 -12 0
14 -1 -16 -11 9 0
14 7 2 0
14 -19 14 15 5 0
14 -2 10 5 6 0
14 18 -11 13 0
14 -10 -8 -14 0
14 -19 -16 0
14 15 12 -19 0
14 -18 5 0
14 -1 -14 0
14 -4 19 -14 18 0
1 3 0
1 -15 0
1 -1 -13 0
1 19 -14 0
1 -2 -4 0
1 18 10 0
1 -15 -1 0
1 -13 11 0
1 9 0
1 17 0
1 2 0
1 8 -3 0
1 -5 19 0
