p wcnf 18 49 18
18 16 -12 -18 1 0
18 -5 -2 9 0
18 -18 1 -6 13 0
18 17 -16 3 -4 0
18 -6 17 10 0
18 17 7 5 -14 0
18 8 -12 10 0
18 15 13 0
18 -3 -10 5 0
18 -6 -15 0
18 -14 12 0
18 -2 18 0
18 6 14 -17 -7 0
18 -18 14 9 0
18 6 -9 -1 0
18 18 16 0
18 8 12 17 0
18 -2 -8 0
18 7 8 -5 14 0
18 -11 -5 3 0
18 -1 15 9 0
18 15 16 0
18 7 9 -17 0
18 -11 -1 -4 -5 0
18 6 -9 -4 -1 0
18 -3 13 -17 0
18 -17 -4 5 0
18 -18 -3 16 0
18 2 3 13 0
18 -9 -12 -10 0
18 -13 -2 -17 4 0
18 8 -9 -5 -2 0
1 -15 0
1 6 0
1 15 -12 0
1 -7 0
1 -2 0
1 -16 0
1 16 12 0
1 18 0
1 16 0
1 -15 0
1 2 0
1 8 0
1 -9 18 0
1 4 -14 0
1 -10 0
1 -18 -16 0
1 6 0
