p wcnf 18 44 13
13 1 17 0
13 2 18 -8 0
13 13 -6 11 -2 0
13 7 17 18 0
13 11 1 9 0
13 -18 -8 -17 0
13 5 -3 12 -2 0
13 -13 -1 16 -5 0
13 18 15 0
13 3 7 16 11 0
13 -12 -5 -17 0
13 11 -7 0
13 3 17 -11 0
13 -6 -11 9 0
13 9 -16 -3 0
13 -2 -6 -3 0
13 11 6 17 0
13 1 -12 4 10 0
13 6 2 13 0
13 -15 7 -6 -5 0
13 2 -5 0
13 -10 4 9 -17 0
13 -5 8 9 0
13 -8 16 -3 11 0
13 12 -15 0
13 -4 17 -16 0
13 17 -12 4 18 0
13 9 -3 14 0
13 4 -13 -14 0
13 -9 -1 0
13 15 -9 -16 -4 0
13 17 -6 -16 0
1 2 10 0
1 -5 13 0
1 9 0
1 1 2 0
1 4 0
1 6 -3 0
1 -14 0
1 -10 0
1 8 0
1 1 0
1 -17 0
1 5 0
