p wcnf 20 53 19
19 -12 -6 0
19 7 -18 16 -15 0
19 -3 -15 -17 16 0
19 -15 -7 0
19 17 -4 2 0
19 -4 -19 -10 -17 0
19 -7 14 0
19 19 -8 -2 0
19 4 14 -15 0
19 -20 -3 -5 0
19 -4 -18 0
19 -15 -12 0
19 17 12 0
19 -14 -16 -12 17 0
19 2 12 19 0
19 18 -12 0
19 11 10 8 0
19 20 18 0
19 7 -18 -6 0
19 12 11 10 0
19 -20 4 -10 0
19 15 14 -16 0
19 3 -8 0
19 -11 4 16 -13 0
19 -15 14 -20 0
19 -15 2 6 0
19 -3 5 0
19 -20 -17 0
19 6 1 -7 15 0
19 -10 18 0
19 -7 9 -16 18 0
19 -9 -7 -13 -6 0
19 12 19 0
19 -16 3 0
19 17 2 19 0
1 19 -1 0
1 9 2 0
1 15 0
1 -10 0
1 18 0
1 11 0
1 -9 -18 0
1 -8 -7 0
1 -14 -7 0
1 -10 0
1 -16 0
1 5 -1 0
1 -7 -5 0
1 -16 19 0
1 13 8 0
1 20 -11 0
1 -10 1 0
1 4 0
