p wcnf 19 64 18
18 -15 14 19 1 0
18 -15 3 18 9 0
18 14 4 0
18 -2 3 -17 -4 0
18 6 10 0
18 8 -16 -4 0
18 -16 -10 -8 -14 0
18 -2 -8 16 0
18 12 -16 -11 15 0
18 18 14 -5 0
18 -3 16 -18 6 0
18 -3 18 19 -8 0
18 12 14 8 0
18 17 -12 8 0
18 17 -6 12 0
18 -4 -16 -7 0
18 17 -15 0
18 7 3 14 -11 0
18 -7 13 16 0
18 1 -13 18 0
18 -2 -5 11 0
18 2 9 0
18 -12 7 0
18 9 19 0
18 -14 -18 5 0
18 15 6 -8 1 0
18 -9 16 18 -19 0
18 11 10 -7 3 0
18 11 -19 0
18 3 15 13 0
18 -17 -11 13 0
18 14 -3 -19 8 0
18 3 17 0
18 5 7 14 0
18 17 1 -14 0
18 14 16 -2 0
18 -19 -1 0
18 -12 -14 -16 0
18 18 -4 0
18 -7 11 0
18 3 -6 7 0
18 -19 14 -2 0
18 -16 5 -1 -6 0
18 -9 3 -12 -4 0
18 -12 9 -1 15 0
18 -4 6 -10 -12 0
18 19 -11 -17 0
1 16 0
1 -16 0
1 -18 0
1 -3 0
1 4 -17 0
1 -13 0
1 14 0
1 14 -18 0
1 4 0
1 16 12 0
1 4 0
1 -18 0
1 -16 0
1 9 7 0
1 13 0
1 6 0
1 -5 0
