p wcnf 11 48 18
18 2 -10 -4 -6 0
18 -1 -9 11 4 0
18 -5 10 4 -7 0
18 -1 6 -4 8 0
18 7 -10 -2 0
18 -11 4 -7 0
18 7 -6 0
18 8 9 -4 0
18 -9 1 4 0
18 5 -9 0
18 -3 -11 -4 0
18 4 9 0
18 5 -3 -10 0
18 -2 9 1 0
18 -4 7 0
18 -2 -5 -11 -7 0
18 11 -7 -10 3 0
18 -5 -8 -4 0
18 -11 -7 10 5 0
18 -11 9 10 0
18 3 -8 7 0
18 -3 -6 0
18 -1 11 -8 2 0
18 11 2 6 0
18 8 -4 0
18 -8 6 -3 0
18 8 -5 -9 -2 0
18 -4 -8 -3 2 0
18 10 -7 -4 -3 0
18 8 4 -1 0
18 -3 -5 0
1 -9 0
1 11 0
1 11 0
1 11 0
1 -7 -3 0
1 9 -8 0
1 -1 0
1 -2 -4 0
1 -9 -3 0
1 10 0
1 6 0
1 -10 -2 0
1 9 2 0
1 -8 0
1 -5 0
1 11 0
1 -2 1 0
