p wcnf 13 42 15
15 5 2 -8 -13 0
15 -12 10 -3 0
15 -5 -7 13 -1 0
15 -13 -2 -10 0
15 -12 3 -11 7 0
15 -6 4 8 9 0
15 7 -11 -13 0
15 4 11 -5 0
15 -6 10 -5 11 0
15 -5 -9 12 -7 0
15 -4 -7 -8 1 0
15 7 5 -11 0
15 -5 11 0
15 10 -12 13 5 0
15 -2 -4 11 0
15 6 2 13 -8 0
15 1 -6 0
15 12 -8 5 0
15 1 13 -7 -5 0
15 3 -8 0
15 -6 -3 0
15 5 -10 0
15 -10 3 0
15 -9 12 0
15 4 7 -11 0
15 -13 2 0
15 -3 11 0
15 -8 5 -7 11 0
1 -4 0
1 13 0
1 11 0
1 -4 0
1 -4 0
1 1 -8 0
1 4 -1 0
1 -5 -9 0
1 -4 3 0
1 11 -5 0
1 1 13 0
1 3 0
1 8 9 0
1 -4 0
