p wcnf 18 45 15
15 9 5 -17 -12 0
15 -2 16 11 -17 0
15 15 11 -7 -14 0
15 5 -12 0
15 8 -17 10 16 0
15 -2 8 0
15 5 12 -17 0
15 4 11 17 0
15 13 -2 0
15 -17 -10 2 18 0
15 14 -12 3 6 0
15 16 11 10 0
15 -13 -1 0
15 -5 9 6 0
15 13 16 9 0
15 4 15 0
15 -4 -8 -18 0
15 -12 10 0
15 6 -5 13 -15 0
15 2 -12 0
15 18 -3 17 0
15 7 -2 -13 9 0
15 -12 14 -17 18 0
15 -6 -17 -5 15 0
15 -4 -18 8 -7 0
15 -8 -1 -11 5 0
15 14 7 0
15 3 2 16 0
15 -9 6 2 0
15 -3 -17 -8 -16 0
15 -10 -9 -3 8 0
1 12 0
1 -12 0
1 -16 0
1 -18 0
1 -3 0
1 -17 4 0
1 -17 0
1 -3 -4 0
1 12 0
1 4 0
1 17 0
1 -12 0
1 -17 0
1 -7 0
