p wcnf 15 45 20
20 5 -2 -9 0
20 4 7 -15 -3 0
20 -12 -11 10 5 0
20 9 -7 14 3 0
20 -5 -12 0
20 -9 -2 11 -1 0
20 7 11 5 0
20 11 -7 4 0
20 4 12 11 0
20 -9 -14 12 0
20 8 -11 0
20 12 5 -8 0
20 -14 -11 -1 3 0
20 12 8 -9 0
20 -12 14 0
20 -7 -5 10 -1 0
20 -10 -12 0
20 9 7 0
20 14 2 13 -3 0
20 -15 -3 -8 0
20 -5 8 -9 0
20 -8 9 5 0
20 2 -12 9 0
20 -15 -14 0
20 -5 14 0
20 15 11 12 0
1 9 0
1 15 0
1 -10 0
1 -10 0
1 -11 15 0
1 -5 0
1 13 11 0
1 9 -4 0
1 -2 0
1 7 -10 0
1 -2 8 0
1 6 10 0
1 3 0
1 5 13 0
1 -9 0
1 -7 0
1 -10 0
1 -3 0
1 -6 0
