p wcnf 20 75 20
20 3 2 0
20 -17 6 12 0
20 8 -16 0
20 -9 -16 0
20 -12 20 2 0
20 -12 -11 0
20 -4 7 0
20 9 19 18 0
20 10 -6 -16 2 0
20 -2 -8 0
20 -17 -10 -3 0
20 17 -19 9 0
20 1 -19 -7 16 0
20 1 -8 18 -17 0
20 -9 16 0
20 -5 1 -10 0
20 1 18 0
20 1 -17 7 16 0
20 -13 3 -5 19 0
20 18 8 -6 14 0
20 -2 -1 8 -18 0
20 12 -1 15 -6 0
20 11 -13 2 0
20 -9 -17 0
20 18 -3 0
20 -15 16 -19 6 0
20 -18 -10 0
20 8 -9 0
20 9 11 -17 0
20 16 -1 -3 -6 0
20 -6 13 -18 0
20 19 -15 0
20 1 16 17 0
20 11 9 10 -7 0
20 1 -12 17 0
20 7 16 18 2 0
20 -18 -20 0
20 19 -20 -8 -3 0
20 1 -7 -19 0
20 10 8 2 0
20 16 -14 13 0
20 -19 -2 -17 0
20 -5 -6 -19 16 0
20 -18 4 8 0
20 -16 -10 -3 -7 0
20 -4 9 -19 0
20 6 5 11 0
20 14 7 -15 0
20 19 -2 16 -20 0
20 9 -6 -4 0
20 -16 17 -6 0
20 16 -4 0
20 -3 -17 12 0
20 14 11 18 0
20 8 -2 1 0
20 -19 -12 0
1 11 0
1 -2 0
1 12 0
1 -9 0
1 13 0
1 -3 0
1 4 6 0
1 19 0
1 -20 -19 0
1 20 -16 0
1 -8 -19 0
1 18 0
1 2 0
1 11 0
1 15 0
1 20 0
1 -17 0
1 2 0
1 5 0
