p wcnf 10 47 19
19 8 10 6 0
19 -8 -7 -10 9 0
19 4 6 3 1 0
19 8 3 1 0
19 7 -2 -4 -8 0
19 6 -9 8 7 0
19 10 9 1 0
19 -9 -3 -8 0
19 -9 7 2 0
19 3 -4 0
19 -7 -4 1 0
19 3 -10 -8 -6 0
19 5 -10 1 7 0
19 3 2 -5 -6 0
19 -2 -7 0
19 -7 -1 10 0
19 4 5 -10 0
19 -2 1 -8 -6 0
19 1 7 -2 0
19 5 7 2 0
19 -1 5 6 0
19 -8 -4 -10 0
19 6 2 8 5 0
19 -10 -1 0
19 4 -5 -1 0
19 3 4 0
19 -5 10 4 1 0
19 5 10 -4 0
19 -7 -10 -5 0
1 -1 0
1 4 0
1 1 0
1 -8 0
1 -2 0
1 -2 -10 0
1 6 8 0
1 -2 0
1 5 0
1 6 0
1 7 0
1 -7 0
1 -8 5 0
1 -9 -4 0
1 2 -6 0
1 -6 4 0
1 -4 0
1 -7 0
