p wcnf 13 41 11
11 -3 6 2 0
11 9 -13 -7 0
11 9 4 -8 0
11 9 -12 8 0
11 1 13 0
11 -9 8 12 0
11 -11 -7 0
11 4 -1 -11 -3 0
11 2 -10 1 8 0
11 -2 -10 8 0
11 8 11 -3 0
11 13 6 7 0
11 3 -11 0
11 11 -9 8 -13 0
11 -3 6 5 12 0
11 -5 2 0
11 -12 -3 -5 7 0
11 5 3 0
11 2 9 -4 0
11 -4 -10 2 11 0
11 -2 7 5 11 0
11 -8 -5 -13 0
11 -3 4 6 0
11 6 -13 0
11 -4 -13 -11 -12 0
11 -8 -1 10 0
11 -8 -6 -9 0
11 -8 -9 0
11 1 -3 12 0
11 -1 -10 -9 4 0
11 12 4 0
1 -2 1 0
1 6 0
1 13 0
1 -10 12 0
1 9 5 0
1 13 0
1 -4 10 0
1 7 0
1 -5 0
1 1 -3 0
