p wcnf 16 58 20
20 -14 11 3 6 0
20 11 -4 0
20 -4 14 -16 3 0
20 9 2 5 0
20 -12 2 -15 3 0
20 -16 15 -2 -12 0
20 -10 -15 5 16 0
20 10 -1 0
20 10 -11 4 2 0
20 -13 -7 0
20 -3 2 -10 -8 0
20 -3 1 8 -14 0
20 14 3 -7 0
20 -10 9 6 0
20 10 8 6 0
20 5 3 13 -10 0
20 -10 16 -8 0
20 -1 2 -8 0
20 -1 -9 -6 7 0
20 12 10 0
20 -4 3 -5 9 0
20 6 -12 -13 5 0
20 -3 -12 -4 0
20 1 14 2 0
20 11 -5 9 8 0
20 -9 10 -1 -12 0
20 -6 9 0
20 -1 -10 -12 -4 0
20 14 13 10 -7 0
20 -14 1 -9 -8 0
20 -13 10 0
20 -9 10 6 -11 0
20 12 -16 -13 -15 0
20 10 12 -16 0
20 -5 13 12 0
20 8 10 0
20 -13 9 -5 0
20 -13 5 0
20 -2 -6 0
1 -1 -15 0
1 -3 -6 0
1 -12 0
1 -11 2 0
1 -8 0
1 -10 0
1 6 -13 0
1 -13 -12 0
1 2 0
1 -9 -15 0
1 -2 0
1 7 0
1 14 0
1 -6 15 0
1 -2 0
1 -4 3 0
1 15 0
1 15 0
1 -2 0
