p wcnf 16 57 16
16 15 3 4 -10 0
16 2 4 0
16 14 1 0
16 -12 -4 14 10 0
16 -8 -9 -16 13 0
16 -11 -1 8 0
16 -4 1 13 -8 0
16 -2 -9 0
16 13 7 16 5 0
16 4 -6 -1 3 0
16 -16 -15 -4 -9 0
16 6 3 0
16 2 16 0
16 -15 7 0
16 -16 -9 -11 -15 0
16 -7 -3 -14 16 0
16 9 12 0
16 8 15 4 0
16 7 -1 -15 0
16 -7 16 0
16 5 -7 13 -9 0
16 5 15 -10 -16 0
16 13 8 2 0
16 -2 10 0
16 -7 -16 5 0
16 -9 -16 6 0
16 7 6 -10 0
16 10 -2 0
16 4 -1 6 -12 0
16 6 -1 15 0
16 8 -13 -6 0
16 11 -1 -5 0
16 -12 -7 16 0
16 13 -8 -15 0
16 14 -16 -12 11 0
16 -15 13 0
16 -9 -15 0
16 8 2 0
16 -6 -4 -16 14 0
16 -6 -11 -4 13 0
16 -8 -10 -4 0
16 -6 -2 0
1 2 0
1 16 0
1 -2 7 0
1 -15 0
1 3 0
1 5 4 0
1 1 11 0
1 3 -9 0
1 11 0
1 -7 -14 0
1 -12 0
1 7 -9 0
1 16 10 0
1 13 10 0
1 -16 0
