p wcnf 14 49 13
13 14 -10 0
13 -8 -4 3 0
13 -14 -11 3 0
13 4 -5 -6 0
13 8 -12 10 -4 0
13 -3 5 0
13 1 8 -10 9 0
13 5 8 0
13 8 -14 -13 0
13 11 -5 10 6 0
13 2 3 -10 -1 0
13 6 -12 -4 0
13 6 -13 11 0
13 -8 5 -14 7 0
13 -3 -2 -8 0
13 5 -3 -11 -10 0
13 -11 -13 2 -7 0
13 -7 -2 8 -9 0
13 -11 2 10 -7 0
13 8 2 -5 0
13 5 2 0
13 2 14 0
13 13 -6 -9 -10 0
13 -8 -12 9 0
13 14 -7 6 0
13 7 -2 0
13 -14 -9 5 0
13 -13 -14 3 6 0
13 -5 -4 6 -1 0
13 -8 5 0
13 -10 3 -7 -8 0
13 -1 -10 0
13 8 -9 13 7 0
13 7 10 4 -11 0
13 -13 -2 10 0
13 4 -2 -1 -11 0
13 11 4 8 -13 0
1 -12 0
1 -1 0
1 -11 12 0
1 6 0
1 1 4 0
1 -6 0
1 -9 4 0
1 12 0
1 -4 0
1 10 0
1 14 0
1 -3 0
