p wcnf 20 57 16
16 11 -13 0
16 -4 2 18 0
16 9 8 -10 -13 0
16 -4 14 -17 0
16 -10 6 -16 0
16 4 -7 16 0
16 19 -12 0
16 -18 -20 17 0
16 20 -18 -13 4 0
16 16 20 -1 0
16 11 5 -6 -2 0
16 15 -18 9 16 0
16 -11 3 15 1 0
16 -20 -19 -7 -15 0
16 -9 10 17 19 0
16 -2 -4 0
16 17 13 -19 18 0
16 4 17 14 10 0
16 2 8 -4 0
16 17 -5 -8 -20 0
16 -10 16 15 4 0
16 -8 -10 -11 0
16 14 -8 -16 0
16 17 2 13 6 0
16 5 -20 -6 -11 0
16 19 -10 0
16 9 -5 10 1 0
16 3 2 0
16 16 17 -12 6 0
16 -10 9 -2 0
16 -18 -5 -12 9 0
16 6 -9 -19 0
16 -3 1 -12 0
16 -1 -11 3 6 0
16 -12 -5 0
16 -19 16 -7 0
16 13 -1 0
16 10 -16 0
16 -17 -2 8 -9 0
16 13 -3 -12 0
16 11 -2 -10 0
16 6 10 20 0
1 4 0
1 -2 0
1 15 -4 0
1 5 0
1 16 0
1 4 0
1 6 0
1 -10 0
1 -20 0
1 -10 0
1 20 -9 0
1 8 -16 0
1 14 0
1 -15 0
1 -11 0
