p wcnf 11 46 16
16 8 -1 -2 0
16 6 5 7 -4 0
16 5 -4 0
16 3 -1 -9 0
16 -4 9 -1 0
16 4 3 -8 0
16 -5 -4 -8 0
16 11 1 0
16 -11 5 8 4 0
16 9 3 0
16 -1 -6 -5 0
16 -4 -6 2 10 0
16 7 -1 0
16 -6 11 7 9 0
16 -11 -2 -7 0
16 -4 -3 -9 0
16 -3 -5 -9 6 0
16 -10 -6 0
16 -8 1 0
16 9 7 0
16 8 9 3 0
16 -10 -9 11 0
16 10 -4 -9 -6 0
16 1 3 -8 0
16 9 2 10 0
16 9 -2 3 1 0
16 1 -8 -5 0
16 -7 -8 -1 0
16 -10 -4 -2 3 0
16 4 7 -3 9 0
16 -7 11 -10 0
1 9 8 0
1 3 -9 0
1 2 0
1 4 -9 0
1 6 3 0
1 3 0
1 -1 0
1 -10 -6 0
1 4 0
1 1 -3 0
1 -6 -5 0
1 6 0
1 5 0
1 9 0
1 -6 9 0
