p wcnf 14 52 21
21 -14 -11 0
21 12 2 14 0
21 7 5 0
21 1 -6 0
21 -7 8 0
21 7 6 0
21 10 -5 -11 -9 0
21 8 -2 -11 13 0
21 -12 -8 -13 10 0
21 12 4 -14 11 0
21 -1 -14 -9 0
21 -6 2 9 -12 0
21 -12 5 0
21 9 -10 4 0
21 -12 -8 4 -7 0
21 11 2 13 10 0
21 13 7 -5 9 0
21 -12 11 10 0
21 11 10 0
21 -10 1 0
21 2 14 8 4 0
21 1 -6 9 12 0
21 6 -8 -13 0
21 -13 14 3 9 0
21 -12 4 0
21 10 11 3 -7 0
21 13 8 -4 10 0
21 -4 -10 -2 9 0
21 -10 -3 8 -6 0
21 8 -6 0
21 14 -3 -6 -1 0
21 13 -7 0
1 -13 -1 0
1 12 0
1 -13 0
1 -14 8 0
1 -3 0
1 12 0
1 -8 0
1 -12 0
1 1 0
1 -3 0
1 -14 0
1 -4 0
1 7 0
1 1 0
1 9 0
1 -14 0
1 1 -12 0
1 4 12 0
1 3 8 0
1 -12 7 0
