p wcnf 20 46 19
19 -15 -12 -20 -2 0
19 -20 -10 -11 -3 0
19 6 8 -7 -19 0
19 -15 20 8 -7 0
19 -16 -18 -8 0
19 16 -18 -20 0
19 -17 14 -18 0
19 -5 -12 3 0
19 18 13 -10 0
19 -12 -5 -17 0
19 14 -2 13 0
19 -7 -3 9 17 0
19 18 -5 0
19 19 9 0
19 -2 -15 -1 0
19 3 20 -2 7 0
19 2 -1 0
19 9 3 18 -11 0
19 4 3 1 0
19 1 -16 -20 0
19 18 -12 19 14 0
19 -8 -6 -20 -18 0
19 -16 2 0
19 -14 -16 -13 9 0
19 -7 8 0
19 11 -14 -5 0
19 -3 -2 0
19 -6 -9 13 19 0
1 -1 0
1 -6 -9 0
1 -16 7 0
1 15 -8 0
1 -5 0
1 8 14 0
1 11 -10 0
1 8 0
1 -7 20 0
1 6 0
1 6 7 0
1 16 0
1 -16 0
1 15 0
1 -20 3 0
1 2 0
1 -16 0
1 17 2 0
