p wcnf 11 49 21
21 3 -9 -7 0
21 4 1 -10 0
21 2 7 0
21 8 -4 10 0
21 -11 2 0
21 -4 -3 -2 0
21 -7 6 0
21 8 -9 -10 0
21 -9 11 0
21 -9 1 0
21 -7 9 2 0
21 5 -9 0
21 1 11 6 -3 0
21 -7 -10 0
21 -3 5 -4 -9 0
21 4 11 0
21 8 9 0
21 -3 4 -2 0
21 1 -5 0
21 5 -1 0
21 3 -10 7 0
21 -7 9 3 0
21 -4 8 6 -1 0
21 8 -10 -6 11 0
21 -9 -11 0
21 8 3 0
21 5 -10 0
21 -9 -2 5 3 0
21 -10 11 0
1 10 -1 0
1 -2 0
1 4 0
1 -7 0
1 -5 0
1 -11 10 0
1 -1 0
1 1 0
1 -6 0
1 -1 0
1 10 -11 0
1 -6 -3 0
1 -10 4 0
1 5 0
1 -2 3 0
1 6 0
1 -11 6 0
1 4 11 0
1 5 0
1 -5 7 0
