p wcnf 18 41 18
18 4 -10 -16 0
18 6 -5 -17 -8 0
18 -14 12 1 6 0
18 -17 -18 -15 -5 0
18 -10 -7 -5 6 0
18 13 17 10 0
18 -9 -1 0
18 -12 -3 0
18 -6 10 -14 0
18 12 16 0
18 -11 -13 -8 -17 0
18 -3 -10 0
18 -8 6 0
18 12 2 1 -3 0
18 -18 -13 0
18 -1 15 9 -14 0
18 9 -17 -5 -12 0
18 -1 -11 -7 8 0
18 -3 16 -7 0
18 -12 -10 -6 0
18 12 -18 -5 0
18 -3 -1 10 -9 0
18 5 16 -2 0
18 -16 -8 0
1 5 0
1 11 0
1 -7 0
1 14 0
1 -18 0
1 -1 -9 0
1 -9 0
1 -11 0
1 7 0
1 15 11 0
1 8 0
1 -18 0
1 8 0
1 3 0
1 11 18 0
1 14 0
1 10 -1 0
