p wcnf 20 64 10
10 2 -9 -5 19 0
10 2 15 0
10 14 -2 -16 13 0
10 -19 13 14 -20 0
10 12 -5 -6 0
10 13 -10 0
10 -17 -13 0
10 -17 -8 0
10 -18 14 0
10 -20 -15 0
10 13 -16 17 -7 0
10 9 2 -10 -6 0
10 -10 15 0
10 -3 6 0
10 19 -5 0
10 19 -5 17 13 0
10 -18 -16 7 -13 0
10 -20 9 -11 10 0
10 20 -8 -5 0
10 -2 -15 0
10 -6 -7 -14 -17 0
10 1 -16 0
10 -4 5 -18 0
10 -7 11 20 0
10 -3 -6 11 -1 0
10 -13 16 0
10 -11 6 0
10 5 -14 -4 -12 0
10 14 12 -3 7 0
10 20 14 -8 0
10 17 -2 0
10 -2 -6 0
10 -1 -20 2 0
10 -20 10 0
10 -9 -2 16 -10 0
10 -6 -9 0
10 -6 2 -10 -7 0
10 14 16 -4 18 0
10 -20 -13 -8 -14 0
10 -12 5 -16 9 0
10 6 -2 -12 0
10 -14 10 9 0
10 -3 -4 0
10 8 -18 -6 0
10 -8 17 -2 0
10 -8 19 10 -17 0
10 4 8 0
10 18 10 0
10 -7 13 -1 0
10 7 1 -16 -4 0
10 -7 -14 -3 0
10 -5 -7 18 0
10 -14 -17 0
10 -1 -19 20 0
10 7 6 10 -13 0
1 -5 0
1 -15 -4 0
1 11 0
1 -13 0
1 8 0
1 4 -14 0
1 -6 -4 0
1 19 0
1 -7 0
