p wcnf 19 49 13
13 16 2 -3 12 0
13 4 18 15 -13 0
13 6 -8 19 0
13 -2 11 6 13 0
13 -16 -13 0
13 -4 -11 15 13 0
13 3 -16 0
13 3 5 -17 -2 0
13 -7 -15 19 2 0
13 12 19 0
13 1 18 -4 -11 0
13 -17 3 8 5 0
13 -8 12 15 13 0
13 9 1 0
13 -6 -19 0
13 -17 -13 0
13 -18 -17 12 11 0
13 4 11 0
13 5 14 -8 0
13 -10 -16 12 0
13 -16 -10 9 -17 0
13 15 -10 14 0
13 -8 -1 3 0
13 -16 10 -1 -8 0
13 -18 -12 7 0
13 -5 -8 -6 3 0
13 5 10 3 -2 0
13 -19 9 -1 0
13 10 -15 0
13 -18 -2 -3 14 0
13 -10 9 0
13 18 -9 0
13 -19 8 0
13 -14 -9 7 -18 0
13 -5 4 14 0
13 10 -4 6 0
13 -10 -19 -13 4 0
1 -15 8 0
1 -3 13 0
1 18 -14 0
1 6 0
1 17 0
1 4 -18 0
1 -18 8 0
1 14 19 0
1 1 0
1 -11 12 0
1 -11 0
1 -2 0
