p wcnf 15 58 14
14 13 14 7 0
14 5 15 9 0
14 -11 -6 -5 0
14 -13 3 0
14 -9 5 2 0
14 6 -3 0
14 12 2 0
14 13 1 0
14 5 8 -10 0
14 1 10 -9 -3 0
14 -13 -14 -2 -3 0
14 -10 5 2 0
14 1 -8 7 -2 0
14 -11 14 8 6 0
14 6 -7 10 0
14 12 9 0
14 -10 8 -13 0
14 6 2 0
14 -4 7 10 -14 0
14 15 -10 7 0
14 10 1 0
14 3 -1 0
14 3 6 4 -1 0
14 9 -3 0
14 -12 -13 1 4 0
14 -7 2 0
14 -13 -7 -14 4 0
14 -3 9 -2 -13 0
14 5 3 0
14 14 -3 0
14 -14 -7 1 15 0
14 12 10 3 0
14 8 -10 7 0
14 -4 -8 9 0
14 -12 14 -8 -2 0
14 -3 -10 -4 -5 0
14 -8 10 0
14 -7 15 2 0
14 15 -6 -7 2 0
14 -14 -4 0
14 4 -14 5 0
14 -1 3 11 2 0
14 -9 6 4 -1 0
14 2 14 -10 -3 0
14 1 -2 11 0
1 -12 15 0
1 -7 -2 0
1 -11 0
1 8 12 0
1 14 1 0
1 -14 -13 0
1 -12 0
1 -15 0
1 4 0
1 -14 1 0
1 5 -11 0
1 3 0
1 -10 -1 0
