p wcnf 17 45 10
10 1 6 -10 -11 0
10 17 16 10 -7 0
10 -5 15 0
10 10 15 5 0
10 -3 -8 -16 0
10 -13 11 0
10 -10 -3 0
10 2 -15 -9 13 0
10 -13 6 0
10 -15 17 0
10 -9 7 0
10 10 11 4 0
10 5 -16 -7 -1 0
10 1 12 -4 0
10 -16 -14 0
10 2 -13 0
10 14 9 13 -15 0
10 2 -16 0
10 -9 3 0
10 -16 1 -8 0
10 -3 9 14 0
10 -7 -10 0
10 -4 13 -5 0
10 -14 -2 1 -8 0
10 -12 9 15 -8 0
10 -6 3 2 0
10 -1 -9 0
10 -2 -12 0
10 -10 15 5 0
10 -15 -8 7 16 0
10 10 -17 -12 2 0
10 -6 16 15 0
10 -7 -14 -16 0
10 -4 -2 -13 0
10 13 16 -5 0
10 -4 13 0
1 -9 0
1 5 0
1 9 -6 0
1 -17 -16 0
1 -14 0
1 6 0
1 10 0
1 11 0
1 4 0
