p wcnf 19 65 17
17 3 2 13 0
17 -7 -1 0
17 -14 6 10 -2 0
17 12 5 9 0
17 6 -8 0
17 13 16 14 0
17 -6 -14 4 0
17 -13 7 12 0
17 2 6 4 0
17 -1 -2 0
17 12 -19 10 0
17 10 11 -16 0
17 -6 2 0
17 -11 7 -14 6 0
17 4 7 0
17 -3 18 0
17 18 17 0
17 9 -7 15 10 0
17 2 16 -19 0
17 -16 -12 0
17 1 -9 17 -6 0
17 -8 9 0
17 -8 -4 0
17 -17 12 6 0
17 -19 -1 0
17 -14 -10 4 -1 0
17 1 13 11 0
17 4 -16 0
17 15 1 17 -11 0
17 11 1 0
17 7 19 -2 0
17 -7 10 4 -11 0
17 15 5 -4 -3 0
17 3 10 0
17 -14 4 19 16 0
17 -13 16 3 -19 0
17 -3 19 16 7 0
17 -10 -16 0
17 -7 11 -15 -8 0
17 -7 -3 17 0
17 -11 -16 0
17 18 8 0
17 14 10 -11 -13 0
17 -15 -10 -5 7 0
17 7 10 0
17 -9 14 15 0
17 5 11 -3 0
17 5 -17 -8 15 0
17 18 -4 -9 0
1 -12 0
1 -15 0
1 6 0
1 -2 0
1 -4 0
1 -9 -6 0
1 -2 0
1 14 9 0
1 4 -9 0
1 2 0
1 8 -12 0
1 -13 15 0
1 -18 0
1 -1 0
1 -13 0
1 -1 18 0
