p wcnf 11 46 14
14 1 -9 5 4 0
14 -3 2 8 0
14 9 3 5 0
14 6 -3 0
14 -6 8 11 -2 0
14 -6 -11 -4 0
14 6 10 0
14 6 -10 0
14 7 2 10 -11 0
14 4 -3 -11 0
14 -1 8 5 0
14 -1 -11 -4 -5 0
14 9 -10 0
14 -7 8 6 0
14 -10 -11 4 0
14 8 1 0
14 -7 4 0
14 -2 7 3 -10 0
14 1 -8 10 -9 0
14 -4 -11 -1 0
14 8 -9 0
14 -1 11 0
14 -1 -11 -9 0
14 4 -8 -10 0
14 5 11 0
14 -10 7 0
14 10 -4 5 8 0
14 5 -1 11 0
14 11 -8 0
14 9 2 -6 0
14 -5 -9 -4 7 0
14 1 3 4 8 0
14 8 -7 -11 0
1 -4 0
1 -7 0
1 -4 -2 0
1 -10 0
1 -1 -5 0
1 -4 10 0
1 6 -10 0
1 4 0
1 1 -6 0
1 -10 0
1 2 0
1 6 0
1 -10 6 0
