p wcnf 17 46 9
9 5 -7 11 1 0
9 -7 1 0
9 10 -9 6 -1 0
9 -9 -11 15 0
9 -12 17 6 0
9 -12 6 -11 0
9 -7 -13 10 6 0
9 6 -12 9 -1 0
9 16 -5 -1 -14 0
9 12 -8 0
9 16 4 17 0
9 8 -17 0
9 -8 5 2 0
9 15 -4 0
9 -16 -2 0
9 8 1 0
9 -15 17 0
9 -6 -13 -17 -10 0
9 14 -9 16 0
9 -15 11 -14 2 0
9 -4 2 12 0
9 12 -11 10 0
9 5 7 0
9 -17 -7 0
9 9 16 -13 0
9 2 -11 0
9 4 -6 -11 0
9 -11 -4 13 0
9 5 12 0
9 -5 -4 14 -1 0
9 -7 5 -15 4 0
9 13 11 -4 0
9 -9 6 0
9 -10 -9 0
9 1 6 -16 15 0
9 -14 -12 8 0
9 -2 4 -16 -11 0
9 6 11 -5 -2 0
1 -16 0
1 16 -17 0
1 10 0
1 -16 8 0
1 -9 -11 0
1 -16 0
1 -4 -8 0
1 3 0
