p wcnf 13 53 17
17 -8 13 4 -2 0
17 3 -6 -10 0
17 12 -5 8 0
17 3 4 -6 12 0
17 6 -12 1 -3 0
17 7 5 0
17 9 -8 2 0
17 9 -13 0
17 -5 6 -9 -7 0
17 4 -6 0
17 -6 2 -7 0
17 -5 13 -11 0
17 6 -13 0
17 6 11 -1 5 0
17 -8 -9 -7 4 0
17 -3 -7 -8 6 0
17 2 -9 -7 -1 0
17 2 8 1 -11 0
17 12 10 -3 0
17 -13 -5 6 0
17 -9 -11 0
17 -5 -10 13 0
17 5 -3 7 -6 0
17 9 5 0
17 -3 2 -9 0
17 13 -11 -10 0
17 5 10 7 0
17 12 7 -13 0
17 -5 9 0
17 -2 8 4 11 0
17 2 9 -3 0
17 2 3 -11 0
17 -13 1 -3 10 0
17 4 5 -11 0
17 6 -3 1 10 0
17 -10 -9 8 0
17 5 12 11 0
1 5 0
1 -11 0
1 7 13 0
1 13 0
1 5 -11 0
1 -4 0
1 -12 0
1 -7 0
1 5 -4 0
1 10 9 0
1 -8 -7 0
1 5 -6 0
1 -5 8 0
1 -4 3 0
1 2 0
1 -12 -13 0
