p wcnf 16 40 12
12 -9 16 4 0
12 8 -1 3 0
12 -7 -5 0
12 -6 14 12 1 0
12 -10 -3 -12 -2 0
12 4 -11 6 0
12 -14 15 -7 -9 0
12 10 15 -3 0
12 4 7 0
12 10 14 0
12 11 -15 0
12 -2 -9 0
12 12 10 3 8 0
12 4 -5 3 -12 0
12 -12 9 -1 -14 0
12 -12 -5 -14 0
12 -16 10 14 0
12 3 -7 14 10 0
12 -11 -12 -5 0
12 3 12 -5 14 0
12 -9 16 -3 -7 0
12 -4 -6 -10 0
12 10 9 -2 13 0
12 5 -8 2 0
12 4 -12 0
12 -10 -12 4 13 0
12 1 -14 -13 0
12 3 -7 0
12 -13 10 0
1 5 -10 0
1 5 -14 0
1 -3 0
1 -3 11 0
1 8 4 0
1 -4 0
1 -15 0
1 -4 -10 0
1 2 0
1 9 -7 0
1 1 0
