p wcnf 19 72 21
21 -11 12 -1 -4 0
21 -5 8 -17 18 0
21 6 17 8 0
21 -15 -17 -13 0
21 13 -18 11 10 0
21 -14 -3 -7 0
21 -5 -8 0
21 18 4 -11 -5 0
21 -6 17 -14 -2 0
21 -3 13 12 0
21 -12 -17 -3 0
21 18 8 0
21 -12 5 -15 -13 0
21 14 9 3 15 0
21 -4 -8 0
21 6 11 -8 0
21 -11 -9 0
21 -6 -13 0
21 -3 8 -2 0
21 5 1 0
21 -2 1 0
21 -1 -3 2 7 0
21 1 18 0
21 7 -11 6 0
21 12 13 -19 0
21 -18 13 12 -4 0
21 9 -7 0
21 -6 -1 -7 5 0
21 8 19 -16 0
21 -12 13 -4 16 0
21 -6 -1 0
21 -12 5 -6 11 0
21 -7 5 -17 0
21 -16 15 4 0
21 -15 16 9 0
21 13 -19 0
21 -12 -5 0
21 -9 -4 0
21 5 -9 -17 19 0
21 -8 2 15 9 0
21 -5 -14 -9 13 0
21 -2 16 0
21 2 -15 0
21 -11 7 0
21 -12 -13 0
21 13 1 -17 0
21 10 -4 12 0
21 -2 -11 0
21 -18 -3 0
21 -10 1 2 0
21 5 -15 -2 -19 0
21 -7 -18 0
1 -17 -14 0
1 -11 0
1 19 0
1 15 -10 0
1 17 18 0
1 15 0
1 -18 10 0
1 9 0
1 17 18 0
1 -19 0
1 6 2 0
1 -10 -5 0
1 18 0
1 1 0
1 9 -1 0
1 -7 -9 0
1 9 8 0
1 -11 0
1 13 -18 0
1 9 0
