p wcnf 15 49 20
20 -5 6 2 0
20 -12 14 0
20 -7 15 -4 10 0
20 -5 2 -9 -4 0
20 -15 -12 0
20 -6 4 0
20 14 -13 -11 4 0
20 -4 -5 0
20 5 12 1 0
20 -2 -10 0
20 6 2 12 0
20 15 -8 -7 -11 0
20 -9 7 11 -6 0
20 -15 -12 0
20 8 3 14 0
20 -13 -6 0
20 3 5 0
20 12 -7 -9 0
20 12 14 -9 0
20 11 -6 -12 0
20 -4 -13 11 0
20 7 -1 -13 0
20 8 3 0
20 -8 2 10 0
20 -7 -3 0
20 -15 5 -6 13 0
20 9 14 12 -1 0
20 -8 6 12 0
20 -7 10 0
20 14 11 0
1 -15 7 0
1 6 2 0
1 -9 0
1 -11 -9 0
1 6 0
1 -9 -13 0
1 -12 0
1 11 0
1 -8 0
1 2 0
1 2 -5 0
1 -5 -8 0
1 -2 -12 0
1 -6 8 0
1 14 0
1 -2 0
1 10 0
1 -2 0
1 -7 0
