p wcnf 20 51 21
21 -12 15 17 7 0
21 -12 -6 -1 0
21 10 -18 -13 0
21 8 13 7 0
21 -6 11 0
21 17 5 -19 3 0
21 -8 -19 10 0
21 1 16 0
21 18 2 5 0
21 10 7 0
21 -6 -4 -15 0
21 -9 16 -14 -18 0
21 20 -2 1 0
21 -15 -13 -14 0
21 19 17 0
21 -7 -14 0
21 -13 20 17 -15 0
21 -2 -18 0
21 -2 -10 17 -7 0
21 13 2 -14 0
21 16 -18 11 -17 0
21 -18 7 0
21 -7 10 0
21 -2 8 -6 3 0
21 -6 -11 17 9 0
21 -20 7 -19 9 0
21 2 -14 20 0
21 -19 -9 -17 0
21 15 -17 7 0
21 16 -15 20 -4 0
21 13 -2 7 20 0
1 8 0
1 -16 0
1 6 20 0
1 10 0
1 -9 0
1 11 0
1 -16 0
1 12 0
1 16 0
1 5 18 0
1 -20 -16 0
1 -20 0
1 1 0
1 5 -11 0
1 2 0
1 18 0
1 20 0
1 16 0
1 18 16 0
1 -3 0
