p wcnf 16 64 20
20 15 -6 13 0
20 -13 -12 0
20 -10 -4 12 14 0
20 -2 -9 15 0
20 12 15 16 0
20 4 16 -1 0
20 14 -9 3 -1 0
20 -1 -16 -7 4 0
20 -4 -2 9 10 0
20 -5 3 0
20 16 -5 -9 0
20 -14 -8 0
20 11 3 -1 2 0
20 -5 15 4 0
20 8 13 7 0
20 11 -10 -5 0
20 9 13 7 0
20 15 11 3 0
20 -16 7 10 0
20 15 10 -4 -3 0
20 5 -14 -13 -8 0
20 13 10 15 4 0
20 3 -10 0
20 4 -6 0
20 3 -6 0
20 -13 10 0
20 -15 -11 14 10 0
20 -7 -2 0
20 -1 16 3 0
20 12 2 -1 0
20 8 2 15 0
20 -1 3 16 0
20 6 14 -16 0
20 -9 14 -10 0
20 -11 -12 6 0
20 7 -6 2 0
20 -9 1 4 0
20 -5 11 0
20 2 -9 14 -1 0
20 4 15 -1 -5 0
20 -5 7 -12 0
20 -6 -13 -14 -3 0
20 -5 6 -13 -8 0
20 15 -1 -7 2 0
20 6 15 0
1 -10 0
1 -10 2 0
1 -14 0
1 -9 -1 0
1 -12 0
1 4 0
1 -13 12 0
1 12 0
1 11 0
1 2 0
1 -8 6 0
1 -4 0
1 -14 0
1 12 -13 0
1 -16 0
1 -5 0
1 -4 0
1 -6 0
1 -10 -15 0
