p wcnf 19 47 18
18 -8 5 12 -15 0
18 17 -16 13 0
18 13 6 14 7 0
18 4 -10 0
18 -7 -1 0
18 -6 -4 14 -1 0
18 16 10 15 0
18 -7 1 17 0
18 5 -15 -10 7 0
18 -2 -10 17 0
18 -13 -17 15 -16 0
18 3 -11 4 0
18 -12 18 -19 0
18 6 -1 -11 3 0
18 14 12 0
18 -17 10 -5 4 0
18 -3 14 0
18 7 8 -9 -3 0
18 18 5 0
18 -12 -18 6 0
18 -13 -18 0
18 2 -6 0
18 -15 5 1 0
18 12 -3 0
18 15 3 -1 18 0
18 18 -12 0
18 7 -2 -8 0
18 7 13 14 8 0
18 8 -12 0
18 -13 -8 16 0
1 -3 -8 0
1 -5 -19 0
1 17 0
1 -3 0
1 -3 0
1 -6 -16 0
1 16 -4 0
1 8 10 0
1 -9 0
1 14 18 0
1 -13 -6 0
1 -12 -2 0
1 -16 0
1 -13 0
1 -17 18 0
1 1 0
1 -15 0
