p wcnf 19 72 20
20 -3 -5 19 0
20 -12 15 -14 -6 0
20 15 13 0
20 19 4 -1 0
20 14 5 -11 -1 0
20 16 18 0
20 -8 4 9 0
20 8 14 -10 9 0
20 18 -13 -1 7 0
20 16 4 -8 -18 0
20 -11 5 -2 0
20 -5 -3 -17 0
20 -18 12 -6 0
20 -19 15 0
20 6 15 -13 -7 0
20 18 16 0
20 6 19 0
20 -8 6 0
20 8 7 14 0
20 -8 -17 10 16 0
20 19 6 0
20 -12 -7 0
20 -14 -11 0
20 16 15 -8 0
20 -11 12 7 -18 0
20 -11 6 0
20 3 13 0
20 -1 12 0
20 5 15 0
20 -1 -14 16 -13 0
20 8 -2 -3 0
20 -8 15 4 -9 0
20 -14 15 -3 0
20 8 -5 0
20 8 -3 0
20 8 -12 0
20 8 -1 3 7 0
20 5 -10 -4 18 0
20 12 6 7 0
20 3 -7 18 -12 0
20 18 -3 0
20 19 5 -4 16 0
20 -6 -7 -5 0
20 18 -2 -11 -16 0
20 10 8 -2 0
20 14 -2 0
20 7 -19 -17 0
20 -4 -7 19 0
20 -10 5 -7 3 0
20 10 -5 3 -1 0
20 -1 17 11 0
20 2 3 13 0
20 10 -18 0
1 18 0
1 -8 0
1 -4 0
1 -4 11 0
1 -15 0
1 9 -11 0
1 8 2 0
1 -19 -11 0
1 -9 0
1 3 -18 0
1 18 0
1 -18 3 0
1 1 0
1 13 0
1 -17 7 0
1 13 0
1 -9 19 0
1 11 0
1 -6 -18 0
