p wcnf 17 42 18
18 1 17 -6 0
18 -8 13 14 -16 0
18 -12 16 -5 3 0
18 4 -8 -10 0
18 -9 -2 11 17 0
18 4 6 5 14 0
18 -17 11 -14 0
18 10 -12 -4 3 0
18 -4 -7 15 -12 0
18 16 -6 3 4 0
18 -16 -7 -5 0
18 -2 -16 -6 -11 0
18 -8 16 -1 14 0
18 9 6 0
18 -17 7 0
18 -1 -8 11 12 0
18 12 2 0
18 10 13 0
18 -14 -7 -6 0
18 15 -17 -5 10 0
18 5 -17 -14 9 0
18 17 -13 1 0
18 12 -2 -17 9 0
18 10 2 0
18 -14 -6 0
1 3 10 0
1 -2 -3 0
1 -17 0
1 -12 0
1 3 0
1 -8 0
1 -12 0
1 16 0
1 -2 -3 0
1 -11 0
1 10 4 0
1 -10 0
1 -10 -7 0
1 4 0
1 -13 0
1 -9 -16 0
1 -10 0
