p wcnf 14 56 19
19 -4 7 10 8 0
19 1 -14 7 0
19 9 -11 14 0
19 1 11 0
19 4 -1 11 0
19 9 8 -10 0
19 -10 -8 12 -6 0
19 5 6 0
19 -10 6 2 0
19 5 6 0
19 -9 -2 4 7 0
19 -6 1 9 8 0
19 13 6 -14 -5 0
19 6 9 0
19 -10 -7 -5 1 0
19 11 12 -10 0
19 2 5 0
19 12 -4 14 0
19 11 5 -13 4 0
19 2 5 -6 0
19 -13 8 1 0
19 -11 7 0
19 -12 1 4 0
19 -11 14 3 0
19 -5 14 3 1 0
19 -1 -12 0
19 -13 -8 -5 0
19 -3 12 7 9 0
19 7 -8 0
19 2 14 3 0
19 -11 -5 -14 -2 0
19 -1 7 -12 13 0
19 7 14 6 -11 0
19 -4 -14 0
19 -2 1 0
19 -8 6 2 0
19 -8 -9 6 -13 0
19 6 -14 12 0
1 9 13 0
1 11 0
1 -5 -8 0
1 -3 -2 0
1 3 5 0
1 -1 0
1 -9 1 0
1 4 13 0
1 4 0
1 -13 0
1 -14 0
1 -13 0
1 9 0
1 8 0
1 6 9 0
1 2 0
1 1 0
1 5 0
