p wcnf 16 53 11
11 -8 -11 -3 0
11 -2 -5 -9 0
11 9 4 0
11 14 -15 0
11 -10 2 3 0
11 2 -16 0
11 -5 -16 -13 0
11 -7 -5 -1 -14 0
11 -14 -3 0
11 2 8 0
11 6 -5 0
11 9 -4 -12 -10 0
11 -10 16 0
11 -10 8 7 1 0
11 16 -8 -2 5 0
11 -3 14 -11 -13 0
11 16 -7 -3 -6 0
11 -3 2 0
11 4 2 11 0
11 -7 1 9 14 0
11 7 14 -9 0
11 -10 -11 -2 0
11 6 8 10 1 0
11 -6 -4 14 -1 0
11 5 7 -4 -8 0
11 8 -1 -5 -7 0
11 -7 -1 -6 0
11 -5 12 -15 0
11 -14 2 0
11 12 3 0
11 14 -11 0
11 -7 16 8 0
11 -7 -16 8 0
11 -10 9 -8 0
11 -5 4 -1 0
11 10 -6 -2 5 0
11 8 7 -15 5 0
11 1 11 15 0
11 -6 -13 -3 0
11 -10 15 -6 0
11 -11 12 4 -14 0
11 3 8 4 14 0
11 16 -11 0
1 13 0
1 -5 0
1 7 0
1 3 0
1 -12 0
1 1 -7 0
1 9 0
1 -10 9 0
1 15 0
1 -16 -7 0
