p wcnf 19 59 17
17 -15 -6 4 0
17 15 14 -7 0
17 -1 16 -6 0
17 -17 -16 -2 7 0
17 -8 -17 -12 0
17 -10 -17 -14 0
17 19 -13 -15 2 0
17 10 4 -1 0
17 -15 -12 -8 -9 0
17 14 -11 0
17 4 -10 -6 -1 0
17 -4 6 3 0
17 9 -5 -15 16 0
17 11 19 -3 0
17 -16 4 -1 15 0
17 -9 12 -1 -18 0
17 19 16 2 18 0
17 18 -2 1 19 0
17 -12 10 0
17 7 8 0
17 9 16 -3 17 0
17 17 -10 -3 0
17 13 -9 -15 7 0
17 2 5 0
17 -8 5 -4 0
17 16 1 -10 0
17 19 17 -15 0
17 3 -14 -15 0
17 2 -5 0
17 2 19 -17 6 0
17 -8 19 0
17 -8 -5 2 7 0
17 16 19 -4 -13 0
17 17 10 -16 -2 0
17 15 -7 0
17 -14 13 -17 -15 0
17 -15 5 -12 14 0
17 11 -13 10 0
17 -2 -1 -7 3 0
17 4 12 -3 0
17 -1 13 -8 0
17 12 -7 0
17 10 -9 -11 -12 0
1 -7 0
1 1 0
1 16 0
1 -11 0
1 19 -11 0
1 8 0
1 6 4 0
1 -13 0
1 -2 -6 0
1 1 0
1 -11 -19 0
1 3 19 0
1 14 0
1 -1 0
1 9 -5 0
1 19 -12 0
