p wcnf 19 70 20
20 -11 -16 0
20 8 15 2 12 0
20 3 -11 5 0
20 3 1 -9 -2 0
20 12 -17 5 0
20 11 18 17 -9 0
20 -1 7 14 0
20 -8 -15 0
20 17 16 -15 0
20 -19 -1 15 -12 0
20 8 4 -2 0
20 -18 -13 19 5 0
20 17 1 0
20 12 -6 5 8 0
20 -3 -9 0
20 2 -5 7 11 0
20 8 -16 0
20 -11 -16 13 0
20 -11 18 0
20 2 -13 17 11 0
20 -14 -11 18 0
20 17 19 0
20 -16 18 -3 19 0
20 -15 -16 -8 -13 0
20 -18 -2 -9 0
20 13 -9 -16 0
20 9 -3 0
20 -12 3 -5 0
20 17 -15 -10 12 0
20 -4 -5 -11 0
20 4 18 10 0
20 -18 -9 -10 -13 0
20 5 14 3 0
20 3 10 7 4 0
20 13 -15 10 0
20 -9 -19 0
20 8 18 0
20 12 -8 3 0
20 -11 -18 0
20 16 -6 0
20 -19 -1 0
20 -6 9 14 0
20 -2 3 0
20 1 6 -4 -7 0
20 11 9 -7 5 0
20 11 -19 0
20 7 9 -11 -6 0
20 -14 11 4 -5 0
20 18 7 0
20 11 -10 2 -5 0
20 8 1 10 -14 0
1 17 0
1 -1 0
1 -18 0
1 -6 0
1 -14 0
1 16 2 0
1 -15 14 0
1 -19 0
1 19 0
1 19 0
1 16 0
1 14 0
1 -13 6 0
1 8 0
1 1 0
1 -11 7 0
1 4 0
1 -11 0
1 9 0
