p wcnf 14 48 18
18 13 -12 0
18 12 14 2 0
18 -12 6 0
18 -8 -6 13 4 0
18 -11 12 8 -6 0
18 1 -4 0
18 14 7 -1 4 0
18 6 7 -4 0
18 14 -12 -5 0
18 -10 14 12 5 0
18 -2 -3 4 -14 0
18 6 -9 -12 0
18 -10 -5 14 1 0
18 5 -14 0
18 12 2 0
18 -7 -2 0
18 -5 13 0
18 10 11 6 0
18 2 13 5 0
18 11 -6 -14 3 0
18 1 10 13 0
18 5 -11 0
18 11 8 -6 5 0
18 -4 -8 0
18 -3 -4 0
18 5 11 12 -13 0
18 12 1 5 -4 0
18 -1 -6 5 -12 0
18 4 6 0
18 -3 -13 12 0
18 8 -13 0
1 -5 -8 0
1 5 0
1 -14 0
1 12 -8 0
1 -6 0
1 4 0
1 -4 -11 0
1 2 0
1 -14 -2 0
1 5 -3 0
1 8 -6 0
1 -9 -3 0
1 -8 0
1 -3 0
1 -14 0
1 5 0
1 7 0
