p wcnf 19 55 18
18 -19 14 10 0
18 -9 -5 3 1 0
18 -9 -5 2 6 0
18 -15 -12 19 11 0
18 11 5 -13 0
18 -1 11 14 -4 0
18 -11 13 2 -19 0
18 -3 -19 11 0
18 4 -14 0
18 -6 15 0
18 -5 15 4 19 0
18 -6 -15 -8 -11 0
18 17 1 -13 -9 0
18 -3 -2 7 -14 0
18 -19 -2 -4 -13 0
18 -7 4 0
18 19 6 9 0
18 16 17 -8 14 0
18 18 -4 -14 0
18 -16 -14 18 -11 0
18 12 -5 13 0
18 17 -4 -3 6 0
18 -7 12 0
18 -3 5 0
18 10 -13 1 -18 0
18 -1 3 0
18 3 11 5 18 0
18 9 19 8 0
18 -17 -3 0
18 16 1 18 -13 0
18 19 6 0
18 2 11 0
18 10 3 12 11 0
18 -14 -17 10 -15 0
18 -3 -2 15 0
18 -9 18 0
18 -8 10 0
18 10 13 3 -12 0
1 11 0
1 4 0
1 -17 -3 0
1 8 0
1 -13 10 0
1 -16 1 0
1 14 0
1 2 19 0
1 -3 0
1 7 0
1 -4 0
1 7 0
1 -17 0
1 -19 -17 0
1 3 16 0
1 -19 0
1 -6 0
