p wcnf 18 46 15
15 -16 6 0
15 -6 -8 -13 4 0
15 15 -1 9 -4 0
15 8 11 3 0
15 -15 14 0
15 9 13 0
15 2 15 16 10 0
15 -6 5 0
15 -1 15 0
15 -18 9 -13 -10 0
15 12 -6 0
15 5 -7 -9 0
15 -13 -15 5 -8 0
15 12 11 0
15 -13 -1 6 0
15 -8 -14 12 -2 0
15 -18 2 14 0
15 -1 -13 7 -14 0
15 3 -5 0
15 3 -11 -18 0
15 1 12 15 0
15 17 12 0
15 -17 -4 12 0
15 -13 12 17 3 0
15 18 7 0
15 -14 -5 0
15 17 7 1 -12 0
15 -3 13 15 0
15 13 -10 -14 0
15 16 -8 2 11 0
15 7 10 13 -16 0
15 12 9 -18 -16 0
1 4 -3 0
1 -18 0
1 14 12 0
1 4 14 0
1 2 0
1 6 0
1 3 0
1 9 0
1 -4 0
1 -1 0
1 -16 1 0
1 -17 0
1 15 0
1 -7 -9 0
