p wcnf 17 47 19
19 -6 2 -9 14 0
19 -17 -13 -5 0
19 -10 -11 6 -17 0
19 -7 15 17 -14 0
19 -16 -1 -15 -5 0
19 -4 -17 -1 -10 0
19 -12 11 -2 0
19 13 -4 0
19 8 -6 -5 9 0
19 2 -7 0
19 -15 4 3 0
19 -5 -14 -7 3 0
19 17 5 -8 3 0
19 15 4 2 7 0
19 6 -17 -8 -12 0
19 9 -3 -5 0
19 -12 -14 13 2 0
19 14 12 0
19 5 -10 0
19 -9 1 3 -16 0
19 6 -12 0
19 4 13 0
19 -17 7 0
19 1 17 13 0
19 3 -16 0
19 -8 12 1 6 0
19 17 10 0
19 -7 -6 -10 -16 0
19 12 10 0
1 2 4 0
1 3 -13 0
1 14 -12 0
1 -12 0
1 -14 0
1 17 0
1 -3 -2 0
1 -5 8 0
1 -3 8 0
1 9 0
1 -10 0
1 2 0
1 7 -17 0
1 13 -16 0
1 8 13 0
1 -7 0
1 -16 -9 0
1 -9 0
