p wcnf 19 55 18
18 5 15 0
18 14 10 0
18 15 19 -8 0
18 -14 7 13 0
18 -17 -18 0
18 -14 -16 3 -6 0
18 -15 -10 11 0
18 15 5 -10 0
18 -1 12 0
18 -1 2 0
18 -4 -8 -1 -2 0
18 6 10 -1 0
18 9 5 0
18 17 1 -7 15 0
18 -12 7 -3 19 0
18 -1 -10 15 0
18 -14 5 -18 0
18 12 -10 15 1 0
18 6 -16 0
18 18 11 0
18 7 8 3 0
18 8 12 16 0
18 3 4 19 0
18 -1 -17 12 15 0
18 -16 -9 -11 5 0
18 10 -3 8 0
18 -4 15 -5 12 0
18 8 2 0
18 -9 -12 0
18 13 -11 -8 0
18 6 2 0
18 -5 7 0
18 16 -19 17 12 0
18 -9 15 1 0
18 12 -17 10 8 0
18 -15 17 4 0
18 -15 -14 0
18 4 -5 6 19 0
1 1 0
1 -11 8 0
1 16 -8 0
1 -12 15 0
1 12 -7 0
1 2 0
1 14 0
1 -19 17 0
1 13 0
1 -4 15 0
1 -10 0
1 -18 0
1 1 0
1 -4 0
1 4 13 0
1 3 0
1 -10 18 0
