p wcnf 19 60 19
19 3 -14 5 0
19 -12 -10 0
19 18 -9 2 0
19 11 -8 0
19 13 -4 -12 -10 0
19 -16 -17 -9 -19 0
19 -7 1 19 -15 0
19 -13 -7 1 0
19 1 -7 6 15 0
19 -8 9 5 0
19 6 3 -7 -13 0
19 2 1 0
19 -9 18 0
19 10 5 4 -18 0
19 18 6 -11 3 0
19 5 -1 9 -6 0
19 15 19 13 0
19 -17 7 0
19 -15 14 -6 0
19 -13 5 3 0
19 7 9 -17 0
19 6 16 9 0
19 4 -17 -9 0
19 -16 15 19 0
19 -2 -5 14 0
19 -17 -6 18 0
19 -13 -10 17 -9 0
19 18 -10 3 0
19 -8 -10 3 6 0
19 -9 -18 2 1 0
19 15 8 2 0
19 -19 17 1 13 0
19 9 10 13 -16 0
19 14 -6 11 15 0
19 -6 13 16 15 0
19 -12 -1 7 0
19 -6 -19 -15 9 0
19 -17 -3 -13 -10 0
19 -1 -16 0
19 -7 18 8 -19 0
19 -13 -15 -4 0
19 -15 -12 0
1 10 0
1 7 0
1 -6 0
1 -14 0
1 -18 0
1 -1 0
1 4 1 0
1 2 0
1 -17 0
1 11 0
1 -14 -13 0
1 12 -9 0
1 -13 14 0
1 12 10 0
1 13 0
1 -16 13 0
1 -5 1 0
1 19 -8 0
