p wcnf 18 44 17
17 -4 -15 0
17 7 -10 -11 0
17 -16 -2 -4 0
17 9 -2 0
17 2 -12 14 -5 0
17 -10 6 17 -1 0
17 -7 -5 -8 12 0
17 -7 15 6 8 0
17 1 8 2 7 0
17 -2 18 0
17 -6 9 5 0
17 14 16 15 0
17 -1 2 4 0
17 -7 -11 14 2 0
17 3 -7 -12 0
17 1 -9 6 10 0
17 -4 15 0
17 14 5 0
17 -9 -11 2 0
17 7 -1 0
17 -16 -1 0
17 6 7 5 9 0
17 3 9 -7 0
17 -10 -4 0
17 3 14 5 1 0
17 11 -17 0
17 -13 10 5 3 0
17 -11 13 -8 0
1 -7 0
1 -3 0
1 18 0
1 -18 0
1 9 14 0
1 -9 0
1 7 0
1 -3 0
1 -14 0
1 -10 -13 0
1 6 0
1 12 0
1 -16 0
1 13 0
1 13 0
1 8 0
