p wcnf 18 48 11
11 14 -18 0
11 -10 6 0
11 11 -1 -13 0
11 7 -12 10 -9 0
11 -7 -17 -10 2 0
11 11 17 0
11 -1 15 5 -16 0
11 5 -16 -15 10 0
11 -1 -7 -9 0
11 -3 -7 -8 0
11 18 -7 9 -8 0
11 12 -18 0
11 -4 13 -17 0
11 1 -4 2 -6 0
11 -8 -15 0
11 -16 -11 10 -15 0
11 -18 17 8 11 0
11 14 -5 -8 -11 0
11 -13 1 15 -3 0
11 -1 13 -18 0
11 -14 5 18 -17 0
11 2 13 0
11 -15 -14 18 -12 0
11 -16 -13 0
11 3 4 -6 -18 0
11 5 -12 2 0
11 -12 -10 0
11 17 6 -15 0
11 11 18 -8 0
11 12 -10 -1 0
11 5 11 9 0
11 18 11 -6 0
11 9 -18 11 17 0
11 13 -1 0
11 -11 6 14 -3 0
11 -4 -16 2 -1 0
11 -16 3 6 0
11 -15 12 -16 0
1 5 0
1 -12 -9 0
1 14 0
1 -4 0
1 2 -6 0
1 2 -10 0
1 5 0
1 -2 0
1 8 -3 0
1 6 0
