p wcnf 18 70 19
19 17 -11 -8 0
19 -11 -6 15 -10 0
19 -14 4 0
19 6 -14 -1 0
19 -13 14 -3 0
19 7 8 -1 0
19 -12 -8 14 0
19 2 -11 0
19 -12 7 -4 0
19 16 -14 -3 0
19 -5 -6 10 9 0
19 7 -9 -8 0
19 14 -12 -10 16 0
19 14 -18 4 3 0
19 -18 -13 0
19 -18 17 0
19 10 12 14 0
19 17 -18 -3 0
19 -18 17 16 -9 0
19 -8 2 0
19 6 9 7 11 0
19 1 16 -2 3 0
19 8 -15 -2 0
19 6 -17 14 0
19 18 13 8 0
19 2 -9 -15 0
19 1 -4 -10 18 0
19 -14 18 0
19 16 -15 0
19 -11 -10 -8 -5 0
19 -17 1 18 -5 0
19 -9 -17 0
19 15 16 -14 0
19 -9 11 1 0
19 -7 10 17 0
19 -14 13 -11 0
19 -11 -3 0
19 3 17 -6 0
19 -14 12 3 0
19 -7 5 0
19 -4 -6 12 -1 0
19 -17 5 4 -13 0
19 15 -6 -3 18 0
19 -9 -5 0
19 -8 4 -9 0
19 1 5 0
19 -5 12 -15 0
19 2 13 0
19 7 15 -16 0
19 5 11 18 -10 0
19 -2 -6 -14 0
19 18 7 -16 0
1 3 0
1 14 0
1 5 0
1 -5 -9 0
1 5 -10 0
1 -10 0
1 -14 0
1 4 -18 0
1 -4 0
1 -4 0
1 9 0
1 -6 0
1 5 -10 0
1 6 5 0
1 -11 0
1 -3 0
1 2 0
1 -14 0
