p wcnf 18 55 17
17 -11 -12 3 0
17 -15 12 0
17 -15 -12 5 -16 0
17 -10 4 -6 0
17 -2 3 -16 -18 0
17 -12 9 -4 13 0
17 14 -3 -5 7 0
17 10 1 0
17 -13 14 0
17 11 -9 -10 0
17 16 -8 13 17 0
17 -5 -14 7 0
17 17 -5 -9 0
17 11 13 0
17 1 3 0
17 14 -15 -16 13 0
17 17 -7 6 -1 0
17 -5 12 -1 0
17 -12 1 -4 5 0
17 -15 -16 0
17 -5 -17 0
17 12 -15 4 0
17 -7 8 0
17 8 10 16 0
17 -8 -16 9 -5 0
17 13 16 4 0
17 15 17 14 0
17 11 1 -3 12 0
17 -13 -10 0
17 15 -1 -10 0
17 6 12 1 10 0
17 -1 3 0
17 4 -9 0
17 -16 2 9 0
17 4 -9 18 0
17 -9 -17 0
17 6 -18 0
17 -13 15 10 -7 0
17 15 -4 2 6 0
1 -3 0
1 -12 0
1 -15 0
1 -9 -16 0
1 -10 0
1 -12 -14 0
1 -13 0
1 17 0
1 9 14 0
1 15 -17 0
1 -4 0
1 15 0
1 2 -1 0
1 -6 0
1 -10 0
1 -12 0
