p wcnf 20 67 21
21 4 11 17 -3 0
21 -16 -1 -9 2 0
21 -6 -14 -18 0
21 2 -18 0
21 -9 -1 3 12 0
21 1 11 0
21 14 19 -20 5 0
21 19 -1 0
21 -8 -1 -15 0
21 -20 6 0
21 12 10 0
21 19 10 15 0
21 -17 16 5 0
21 -12 -15 -10 1 0
21 17 1 -20 11 0
21 14 -7 -18 0
21 -6 5 -19 0
21 20 -3 -19 0
21 -7 16 -19 0
21 1 3 -20 0
21 1 4 0
21 10 15 11 0
21 -3 -5 -11 0
21 1 6 11 0
21 -16 18 -6 0
21 -20 -18 -11 -14 0
21 2 18 -4 -11 0
21 -18 -1 11 -20 0
21 19 1 -9 -15 0
21 15 20 9 0
21 -7 12 13 0
21 20 12 -4 -7 0
21 -1 -18 0
21 -3 -16 0
21 5 19 -18 0
21 -2 -1 16 14 0
21 -1 9 13 -18 0
21 -10 12 16 8 0
21 7 6 -17 0
21 8 19 12 0
21 13 -9 16 2 0
21 15 -3 -12 -19 0
21 7 -17 1 -2 0
21 -7 4 -18 8 0
21 8 -11 6 0
21 -15 6 0
21 3 14 -9 6 0
1 -1 2 0
1 -3 0
1 20 -15 0
1 -3 0
1 18 -1 0
1 2 -12 0
1 -2 0
1 -10 11 0
1 14 0
1 -10 -18 0
1 -4 20 0
1 -11 0
1 8 0
1 2 0
1 16 0
1 -12 0
1 17 0
1 -4 0
1 -2 7 0
1 19 -18 0
