p wcnf 18 45 11
11 -4 -9 0
11 -6 3 13 0
11 17 15 11 5 0
11 8 -5 -13 0
11 -16 5 17 0
11 -6 2 16 8 0
11 -16 13 0
11 -11 9 -16 0
11 5 18 14 0
11 -11 -14 15 0
11 11 14 -8 -12 0
11 7 11 3 0
11 -11 4 0
11 6 -11 0
11 10 -1 0
11 3 8 -2 0
11 17 -15 12 6 0
11 12 13 0
11 15 10 16 5 0
11 15 3 17 0
11 18 -4 -1 0
11 -18 -10 -12 14 0
11 -13 -1 7 0
11 -18 13 0
11 4 12 10 0
11 -4 8 0
11 -15 -12 0
11 -14 2 0
11 -18 -9 -3 13 0
11 1 17 0
11 -4 15 -18 0
11 -7 16 -12 0
11 8 -1 15 0
11 -13 8 -3 0
11 -13 -3 -7 0
1 -16 4 0
1 17 -14 0
1 16 0
1 -5 12 0
1 -4 -17 0
1 -11 0
1 15 0
1 9 0
1 9 -5 0
1 -3 -16 0
