p wcnf 13 58 20
20 -12 10 0
20 -10 8 0
20 9 2 -13 0
20 2 11 0
20 -10 12 4 13 0
20 10 2 13 0
20 7 9 -1 -5 0
20 3 -13 0
20 12 8 -9 0
20 6 7 -4 -9 0
20 10 -5 0
20 11 4 -10 7 0
20 -9 4 -7 0
20 -10 9 -1 0
20 -8 4 -12 -5 0
20 -1 -10 0
20 10 7 0
20 -4 9 3 0
20 9 8 4 0
20 12 1 7 3 0
20 -5 -1 0
20 5 3 0
20 -7 -10 -8 12 0
20 12 8 0
20 -6 -4 8 0
20 -9 4 0
20 -6 13 0
20 -6 -9 1 -13 0
20 -7 -6 -3 -10 0
20 -2 -3 -8 12 0
20 13 7 -2 0
20 2 -9 -6 -5 0
20 10 -12 0
20 -11 10 0
20 7 3 13 0
20 -8 2 0
20 11 -12 0
20 5 -2 -6 0
20 -8 -5 0
1 1 -13 0
1 1 0
1 7 -1 0
1 -12 -9 0
1 12 0
1 6 0
1 3 0
1 -4 -11 0
1 -8 0
1 9 -8 0
1 -2 0
1 -11 -7 0
1 9 13 0
1 -8 -12 0
1 -8 0
1 -13 9 0
1 -5 0
1 12 0
1 -3 -5 0
