p wcnf 15 44 17
17 -3 9 10 13 0
17 4 -10 14 0
17 -8 15 12 14 0
17 -11 6 -8 5 0
17 -10 -3 0
17 9 -13 1 -8 0
17 -12 6 0
17 -1 -4 2 8 0
17 3 14 0
17 15 9 0
17 11 8 -15 -3 0
17 -10 8 -2 11 0
17 -5 3 0
17 7 -15 -13 0
17 -7 -11 -8 -15 0
17 -4 -10 -8 0
17 -5 -3 -1 0
17 -7 9 10 0
17 -12 5 -4 -11 0
17 -14 -12 5 -3 0
17 9 -11 4 3 0
17 12 -7 0
17 -2 -10 0
17 11 -5 0
17 11 -15 10 0
17 12 -11 0
17 -7 -11 -9 0
17 -11 -15 -6 -12 0
1 11 0
1 -12 -7 0
1 2 0
1 10 0
1 -9 0
1 12 0
1 -4 0
1 -3 0
1 -10 0
1 -7 0
1 -2 13 0
1 3 1 0
1 -1 0
1 3 -1 0
1 9 0
1 -4 -9 0
