p wcnf 15 48 10
10 -10 2 8 13 0
10 11 7 15 1 0
10 -5 15 10 0
10 -3 -11 -12 0
10 -12 -10 -5 0
10 -4 -5 -1 0
10 -2 14 0
10 6 -8 -3 0
10 14 -12 -15 1 0
10 -12 -15 6 9 0
10 6 -12 2 0
10 -10 -12 -8 0
10 -12 5 14 1 0
10 -1 12 -11 0
10 12 -8 -6 0
10 4 -9 0
10 2 -12 -14 0
10 -11 -15 -10 13 0
10 13 9 0
10 -8 6 0
10 -12 -10 0
10 -2 6 -5 0
10 -7 -4 6 3 0
10 14 -6 0
10 5 13 0
10 10 12 1 0
10 -8 13 12 0
10 1 8 12 3 0
10 8 -1 0
10 -13 15 0
10 -5 1 0
10 -12 13 4 -7 0
10 -15 -11 -9 1 0
10 -4 14 5 0
10 3 8 -13 -12 0
10 3 -11 7 0
10 11 14 1 -13 0
10 8 -2 -12 0
10 -5 1 15 0
1 -3 7 0
1 -6 7 0
1 -7 -6 0
1 9 0
1 2 0
1 12 0
1 12 14 0
1 13 0
1 -7 0
