p wcnf 19 52 11
11 9 -5 13 8 0
11 -5 -11 -14 -8 0
11 4 -8 0
11 -13 2 0
11 -13 -16 0
11 -14 -7 0
11 9 14 0
11 -5 -2 -13 7 0
11 17 15 0
11 14 17 0
11 2 -4 11 -1 0
11 -7 4 -14 8 0
11 14 -12 6 0
11 3 1 0
11 17 3 0
11 -18 -11 0
11 6 19 11 17 0
11 -19 18 5 0
11 6 -14 0
11 -8 9 15 0
11 10 -8 0
11 -5 3 0
11 2 -7 0
11 3 2 14 0
11 5 -19 4 0
11 11 -18 17 9 0
11 -12 -11 -9 0
11 -2 -1 -19 0
11 10 8 0
11 7 -11 2 -8 0
11 -10 -13 2 0
11 16 -4 -8 0
11 10 2 16 0
11 5 -16 -14 0
11 3 -10 6 -2 0
11 15 6 12 7 0
11 12 -4 -18 -16 0
11 -19 18 0
11 -3 -15 6 11 0
11 -14 17 0
11 1 18 -11 0
11 -14 -11 -8 0
1 17 0
1 -17 0
1 -18 3 0
1 17 0
1 -19 0
1 -14 -5 0
1 9 0
1 3 -4 0
1 14 0
1 8 0
