p wcnf 17 64 19
19 -14 -12 0
19 13 8 0
19 11 -17 0
19 15 5 2 0
19 -10 -4 2 0
19 -7 12 8 0
19 12 15 5 0
19 -10 -5 0
19 -15 2 -14 -5 0
19 -16 17 0
19 2 1 -6 5 0
19 17 3 6 0
19 7 -9 0
19 -10 8 -4 16 0
19 12 5 15 0
19 8 -6 -17 0
19 -14 -17 0
19 -6 13 -5 0
19 16 17 14 0
19 -13 -10 0
19 4 -7 0
19 7 1 -15 8 0
19 -14 7 0
19 -4 17 0
19 -13 15 7 0
19 -3 4 -10 0
19 -6 11 7 0
19 2 14 0
19 11 -2 9 7 0
19 8 16 -12 -6 0
19 -14 2 0
19 3 -9 0
19 -12 7 -11 0
19 -14 -17 0
19 -3 -16 -13 -5 0
19 14 7 0
19 -7 -16 17 0
19 -12 -9 -14 -11 0
19 -12 -8 -1 7 0
19 13 16 11 -10 0
19 9 5 0
19 -10 9 0
19 11 17 -1 0
19 3 14 0
19 5 -6 0
19 8 1 0
1 15 -8 0
1 -11 0
1 14 0
1 -6 9 0
1 7 -16 0
1 -6 0
1 -6 -9 0
1 -4 -5 0
1 -11 0
1 14 0
1 -11 0
1 -16 0
1 -9 0
1 6 0
1 10 0
1 -12 0
1 1 0
1 16 -10 0
