p wcnf 19 47 15
15 10 1 7 0
15 6 -2 -15 -12 0
15 -5 -4 -11 0
15 19 -2 0
15 -13 -7 12 0
15 6 -18 -8 4 0
15 3 11 -18 0
15 -18 2 0
15 -15 10 2 0
15 7 5 0
15 -5 1 -6 0
15 8 -16 17 11 0
15 7 19 -3 0
15 16 11 18 -19 0
15 -1 -2 19 0
15 -9 -18 -2 -12 0
15 -9 -16 -10 -5 0
15 -10 -12 -1 0
15 -17 13 10 -12 0
15 5 14 -7 0
15 -10 2 -3 9 0
15 -12 6 0
15 10 -19 -8 -7 0
15 4 -9 12 -1 0
15 -3 11 16 10 0
15 -13 -17 12 0
15 -2 15 -10 3 0
15 10 -14 0
15 -16 -19 3 0
15 5 -10 6 0
15 5 16 17 0
15 -19 1 -7 5 0
15 -6 -10 -12 7 0
1 15 0
1 -2 0
1 -8 0
1 -4 8 0
1 -17 8 0
1 1 -7 0
1 6 -14 0
1 -16 0
1 -14 -10 0
1 16 0
1 -18 0
1 3 -17 0
1 8 14 0
1 7 0
