p wcnf 20 52 14
14 5 -18 -10 0
14 -5 20 0
14 4 6 -14 0
14 10 5 -7 0
14 -1 -4 -6 15 0
14 20 6 15 -7 0
14 5 -3 0
14 -18 -16 -11 0
14 -12 -14 0
14 7 18 0
14 3 -13 -9 0
14 -4 1 -13 0
14 -17 1 0
14 14 -16 0
14 15 2 -5 0
14 4 14 18 0
14 20 -8 0
14 -4 -1 15 -17 0
14 15 10 8 0
14 11 3 0
14 16 -18 -4 0
14 13 19 10 1 0
14 11 -16 -1 0
14 10 19 -13 -18 0
14 -12 18 -1 4 0
14 -3 -15 14 5 0
14 -1 14 0
14 1 -8 0
14 14 4 -9 0
14 2 16 0
14 14 12 -11 -5 0
14 19 17 -8 0
14 6 -10 15 0
14 12 9 11 0
14 -20 18 5 0
14 -2 -9 0
14 5 -12 -8 0
14 -12 -8 -19 0
14 -19 -4 -3 0
1 -2 0
1 13 0
1 -11 0
1 12 8 0
1 14 -19 0
1 19 0
1 -6 7 0
1 -1 15 0
1 12 0
1 4 0
1 9 0
1 13 18 0
1 16 0
