p wcnf 18 51 17
17 14 12 18 0
17 -12 -17 -6 2 0
17 -7 14 8 1 0
17 -2 16 1 0
17 1 4 -6 14 0
17 -5 -4 -3 15 0
17 -9 4 13 -6 0
17 14 1 -6 0
17 16 -5 12 15 0
17 -18 -10 12 0
17 12 -9 -6 -7 0
17 15 14 -16 -11 0
17 12 -3 1 -2 0
17 -6 -17 0
17 14 16 15 12 0
17 4 9 7 0
17 14 18 0
17 2 12 -8 -7 0
17 15 1 8 0
17 7 -9 4 10 0
17 12 -13 -17 0
17 6 8 0
17 3 9 0
17 -1 -12 13 0
17 -5 -15 0
17 -17 3 8 11 0
17 3 -5 0
17 -6 1 0
17 -7 2 -5 0
17 -18 -8 -16 -15 0
17 9 7 3 0
17 -16 -4 -14 0
17 -16 -7 0
17 -9 -15 -1 0
17 2 7 0
1 -2 0
1 -6 -2 0
1 9 0
1 -6 -3 0
1 11 0
1 13 -17 0
1 -16 -2 0
1 -4 0
1 16 0
1 9 0
1 6 0
1 7 15 0
1 12 8 0
1 4 11 0
1 9 -2 0
1 15 0
