p wcnf 16 47 11
11 15 11 14 -12 0
11 15 -4 -13 0
11 -3 2 0
11 -13 12 -1 0
11 2 -1 0
11 5 -10 -6 13 0
11 -3 -5 15 0
11 14 -15 0
11 12 -7 0
11 1 -6 -4 0
11 9 -10 0
11 14 4 15 0
11 -6 -7 -13 0
11 16 -13 -5 2 0
11 15 10 -12 0
11 9 -14 4 -13 0
11 -7 11 0
11 -10 -3 -6 8 0
11 8 -1 -13 0
11 -13 -9 -11 0
11 14 -7 4 -11 0
11 15 -9 -16 0
11 4 -11 -1 -9 0
11 1 7 -10 0
11 -12 10 0
11 -6 -12 1 0
11 14 -5 0
11 9 7 2 -4 0
11 3 -12 0
11 8 9 0
11 3 -12 0
11 -7 -15 0
11 10 9 -5 0
11 14 9 -11 5 0
11 -4 10 0
11 12 2 -9 -5 0
11 1 -10 -9 3 0
1 9 -6 0
1 -11 0
1 -3 0
1 16 0
1 -2 0
1 9 4 0
1 13 7 0
1 -14 0
1 -15 -14 0
1 7 13 0
