p wcnf 19 67 17
17 -18 4 0
17 -6 15 0
17 -5 18 -1 -4 0
17 -18 -7 19 0
17 -10 -5 19 15 0
17 15 -13 -5 0
17 -13 -15 3 0
17 11 -19 -8 -10 0
17 -14 1 16 19 0
17 -4 -3 -6 -18 0
17 3 8 -6 9 0
17 4 -18 -3 0
17 -13 -5 0
17 -4 7 0
17 -2 -1 0
17 6 -16 -10 -2 0
17 7 2 -13 -5 0
17 -1 -12 13 0
17 8 -5 0
17 16 -3 0
17 4 -18 -16 0
17 17 14 -16 0
17 12 -16 8 -7 0
17 17 -3 -18 -9 0
17 -6 3 -8 16 0
17 -2 6 0
17 -15 7 -9 0
17 19 -12 16 0
17 -12 15 14 0
17 7 4 0
17 -18 2 0
17 19 12 18 0
17 13 1 -8 10 0
17 3 18 7 0
17 -2 9 -10 -4 0
17 17 5 0
17 -18 -10 0
17 9 -17 0
17 17 13 5 0
17 10 6 13 0
17 14 6 0
17 -17 18 -8 -19 0
17 6 12 0
17 18 -8 -4 16 0
17 12 -10 -8 -7 0
17 2 -19 -16 5 0
17 -3 -13 0
17 8 -15 0
17 2 15 0
17 11 -9 0
17 -19 -18 -8 0
1 17 0
1 -9 15 0
1 7 -14 0
1 2 0
1 7 0
1 15 -7 0
1 18 9 0
1 -12 0
1 1 -9 0
1 3 15 0
1 16 0
1 -6 0
1 -10 0
1 2 0
1 -4 0
1 -19 0
