p wcnf 11 49 20
20 2 10 -4 -1 0
20 -7 11 0
20 -6 -3 0
20 -7 -1 0
20 5 10 -8 0
20 -5 10 0
20 -3 -8 0
20 2 -11 9 0
20 9 -1 0
20 9 3 -6 -8 0
20 7 -8 6 0
20 1 9 -11 -5 0
20 11 6 -5 0
20 -4 -8 5 -10 0
20 -6 -9 0
20 -10 -2 0
20 11 1 -6 0
20 -3 5 7 2 0
20 -6 10 0
20 -3 7 5 0
20 9 -6 -7 0
20 3 5 4 0
20 -2 -4 9 0
20 -8 3 1 9 0
20 -5 -2 -8 0
20 -1 3 0
20 -4 -5 0
20 -1 7 -5 -3 0
20 -1 -3 0
20 -8 1 2 9 0
1 10 0
1 -9 3 0
1 7 -6 0
1 -5 -2 0
1 -6 0
1 2 3 0
1 9 -7 0
1 -10 0
1 -4 0
1 6 0
1 10 6 0
1 -7 -10 0
1 -2 1 0
1 -11 0
1 -3 0
1 -3 0
1 -4 11 0
1 -11 0
1 -7 0
