p wcnf 17 55 21
21 -5 -7 8 1 0
21 17 -6 12 0
21 -6 -11 -5 0
21 5 6 -12 14 0
21 2 -7 0
21 11 -17 -15 0
21 -2 -3 10 0
21 -1 9 0
21 7 2 0
21 -17 -6 -4 5 0
21 -17 6 -7 0
21 -3 11 0
21 -12 -3 0
21 9 -6 16 0
21 5 17 4 -3 0
21 16 -15 0
21 16 -9 0
21 7 -4 1 8 0
21 2 13 -15 -14 0
21 -7 -6 -14 -1 0
21 15 6 0
21 -6 -12 17 0
21 -7 6 -14 13 0
21 14 4 16 0
21 -6 -15 -1 10 0
21 -4 -1 16 0
21 2 -6 -8 5 0
21 17 10 3 0
21 9 16 12 -7 0
21 16 8 0
21 13 -6 5 0
21 2 3 -8 0
21 -4 -14 0
21 6 16 -12 -14 0
21 -2 -8 0
1 -16 0
1 14 0
1 -6 -12 0
1 12 0
1 17 -12 0
1 16 0
1 7 -4 0
1 16 4 0
1 13 0
1 9 0
1 -8 12 0
1 14 0
1 11 0
1 3 0
1 -3 0
1 2 0
1 -10 0
1 16 -3 0
1 -4 0
1 -14 -12 0
