p wcnf 13 41 15
15 -8 5 10 -1 0
15 4 3 -7 0
15 -5 -1 12 -9 0
15 -9 6 0
15 -2 -10 9 0
15 2 1 -11 -12 0
15 10 -12 -13 0
15 4 -13 0
15 -11 2 -13 -9 0
15 8 3 6 0
15 1 6 0
15 6 5 0
15 13 10 -1 0
15 12 7 0
15 5 -3 -8 0
15 7 -11 -1 3 0
15 -10 -13 -7 0
15 4 2 0
15 12 -11 4 0
15 -3 6 -12 7 0
15 11 10 -9 0
15 -12 11 10 4 0
15 13 -8 11 0
15 -5 12 7 10 0
15 -7 -10 12 13 0
15 -11 -8 -13 0
15 -8 3 -4 1 0
1 -3 0
1 -1 -3 0
1 -5 0
1 1 0
1 6 0
1 9 0
1 3 -10 0
1 2 -9 0
1 -3 0
1 -12 0
1 6 -8 0
1 3 -1 0
1 -8 0
1 -3 0
