p wcnf 14 46 19
19 -8 2 -12 -7 0
19 5 -4 9 0
19 -1 8 6 0
19 4 11 8 0
19 12 8 0
19 6 14 -8 4 0
19 14 2 0
19 13 -1 0
19 -2 14 0
19 2 8 -7 13 0
19 -9 -8 0
19 -11 -3 -2 0
19 8 -13 0
19 -8 11 -5 0
19 -1 12 5 3 0
19 -4 13 -11 0
19 -11 2 12 0
19 -13 11 -10 0
19 -10 -9 -13 -3 0
19 -13 -1 0
19 -3 7 -11 5 0
19 2 5 0
19 -5 -12 0
19 -8 7 0
19 -9 12 0
19 6 -9 2 -5 0
19 3 -4 -12 5 0
19 -14 2 0
1 -12 0
1 1 0
1 -13 2 0
1 2 0
1 -1 0
1 13 0
1 1 -4 0
1 -7 9 0
1 -10 0
1 -5 0
1 -8 0
1 4 0
1 -1 0
1 10 -14 0
1 12 -3 0
1 -4 0
1 3 0
1 -13 -6 0
