p wcnf 13 48 18
18 -13 5 0
18 -8 -4 0
18 -7 -3 0
18 -6 -2 0
18 6 -5 0
18 7 13 0
18 9 10 0
18 -6 8 -5 4 0
18 4 2 0
18 9 12 7 0
18 9 -5 -7 -10 0
18 -4 3 -1 0
18 2 11 -1 0
18 8 12 0
18 11 -6 -10 0
18 8 -10 13 0
18 -1 6 -4 0
18 -11 7 10 0
18 -6 -12 10 2 0
18 10 -2 0
18 9 -6 3 13 0
18 8 1 12 0
18 12 8 -1 -4 0
18 -3 -6 -4 -12 0
18 -5 2 0
18 13 -1 0
18 -3 9 -12 11 0
18 -8 -3 5 0
18 -13 3 7 0
18 10 -5 -6 -13 0
18 -2 -13 9 0
1 -13 0
1 3 0
1 -12 -11 0
1 5 0
1 4 8 0
1 -12 0
1 4 0
1 9 0
1 -4 11 0
1 6 0
1 12 -11 0
1 11 0
1 -12 -1 0
1 -12 0
1 1 7 0
1 11 0
1 2 0
