p wcnf 16 46 9
9 15 13 9 1 0
9 9 -1 0
9 -2 -6 0
9 1 8 -10 0
9 12 -10 7 0
9 5 -4 -7 0
9 5 -12 -7 0
9 14 -7 15 -10 0
9 -9 -15 -5 0
9 -12 -3 8 0
9 -2 14 10 4 0
9 -2 12 -1 0
9 -3 11 16 0
9 -5 7 0
9 -6 14 -15 -10 0
9 12 -11 0
9 3 7 0
9 4 -5 0
9 16 -9 0
9 11 9 -8 0
9 2 -8 10 0
9 -2 -7 8 4 0
9 14 13 -4 -5 0
9 12 6 1 -11 0
9 -10 -2 0
9 -8 -1 0
9 -1 16 0
9 9 2 -11 0
9 1 -3 -11 0
9 4 12 16 -7 0
9 -7 14 -13 11 0
9 4 -9 -11 0
9 -13 -10 0
9 -12 -7 -11 3 0
9 14 -15 0
9 -12 -15 0
9 6 -1 0
9 -6 10 9 -12 0
1 -4 0
1 13 14 0
1 -1 0
1 6 0
1 1 -3 0
1 9 0
1 12 0
1 1 6 0
