p wcnf 19 49 19
19 9 -4 19 0
19 2 13 3 0
19 3 -13 0
19 4 18 -7 0
19 11 -3 12 0
19 3 -12 -11 0
19 -7 -17 5 10 0
19 -10 -12 11 15 0
19 -15 9 0
19 16 -2 -8 0
19 -2 10 -4 15 0
19 -13 18 -6 17 0
19 -8 16 0
19 2 11 0
19 16 -1 2 0
19 19 -3 0
19 11 -12 9 -8 0
19 -6 7 -13 0
19 -14 -8 5 16 0
19 -14 18 -13 0
19 19 9 0
19 -13 -8 0
19 19 -12 0
19 -16 18 0
19 18 -17 0
19 -7 10 -8 0
19 5 -7 -4 0
19 -4 2 -16 6 0
19 14 -4 -8 2 0
19 -14 -3 13 -17 0
19 11 14 17 0
1 -7 0
1 6 0
1 -12 0
1 13 0
1 -17 0
1 14 0
1 -19 -3 0
1 15 0
1 -10 0
1 -17 13 0
1 -11 0
1 -19 2 0
1 1 19 0
1 10 0
1 -14 4 0
1 5 0
1 -6 0
1 13 7 0
