p wcnf 18 49 19
19 -3 -4 11 0
19 -9 3 13 -2 0
19 -9 -11 13 7 0
19 14 -18 8 0
19 17 -10 0
19 12 -14 -8 9 0
19 6 -16 14 10 0
19 -9 -17 0
19 8 -6 18 0
19 -3 13 -17 0
19 -6 -1 -17 0
19 -15 2 -9 0
19 6 18 -12 10 0
19 -8 -7 -9 15 0
19 -10 -4 0
19 6 11 0
19 -16 10 8 5 0
19 7 16 -3 10 0
19 -15 -11 0
19 11 -4 2 5 0
19 18 16 0
19 8 16 0
19 -3 13 11 -8 0
19 -16 3 0
19 1 -13 4 16 0
19 13 18 15 0
19 -16 -18 0
19 15 5 0
19 8 -17 3 -18 0
19 -18 11 -4 0
19 7 18 8 0
1 18 0
1 8 0
1 -7 0
1 3 0
1 8 0
1 -1 0
1 -12 0
1 6 17 0
1 13 0
1 -17 0
1 -18 0
1 13 0
1 18 0
1 -12 1 0
1 8 5 0
1 -15 0
1 -8 0
1 -16 0
