p wcnf 18 50 18
18 4 -12 -11 0
18 -1 5 -14 17 0
18 10 12 -7 0
18 -12 2 0
18 -12 -10 8 6 0
18 -9 12 0
18 -4 -18 5 -2 0
18 -17 11 0
18 -9 -3 0
18 -2 16 9 0
18 -2 -18 0
18 18 15 7 5 0
18 13 5 -12 -3 0
18 18 13 0
18 -15 18 0
18 -16 -13 0
18 8 3 13 0
18 -16 -12 -15 0
18 6 -7 0
18 5 18 0
18 -8 15 6 0
18 10 12 16 15 0
18 -9 -12 -10 17 0
18 12 3 -8 0
18 -5 -10 -15 -13 0
18 -9 -11 0
18 -13 -4 -9 0
18 -15 13 0
18 10 9 7 15 0
18 10 18 12 0
18 -11 -10 0
18 12 5 0
18 15 4 0
1 1 0
1 7 17 0
1 9 0
1 6 -12 0
1 -11 0
1 3 -7 0
1 -11 -1 0
1 13 -18 0
1 -2 0
1 6 0
1 -12 0
1 -8 -15 0
1 16 0
1 -12 0
1 -18 -12 0
1 15 17 0
1 -1 0
