p wcnf 15 47 19
19 12 -1 7 3 0
19 -3 7 0
19 12 -7 13 10 0
19 -14 -11 3 0
19 10 6 -13 0
19 2 -3 8 0
19 -9 5 0
19 7 -15 10 0
19 6 7 4 -14 0
19 7 -13 -6 -15 0
19 -12 14 2 0
19 -6 14 0
19 -7 -3 4 0
19 10 15 0
19 -7 -9 0
19 7 8 5 -11 0
19 2 -14 12 9 0
19 -2 1 -14 0
19 -8 -5 0
19 10 13 0
19 6 -8 2 0
19 5 10 0
19 -13 1 8 0
19 -8 5 0
19 7 10 8 0
19 -7 -1 0
19 -13 10 0
19 15 6 7 12 0
19 -7 14 -9 0
1 -10 14 0
1 3 0
1 -14 -7 0
1 -14 15 0
1 12 -13 0
1 13 0
1 -2 -3 0
1 10 0
1 -8 0
1 -15 0
1 10 -14 0
1 11 1 0
1 -1 0
1 5 0
1 -10 0
1 4 0
1 -12 -7 0
1 5 -2 0
