p wcnf 17 57 10
10 4 -15 -13 14 0
10 4 15 14 0
10 -6 -3 0
10 -12 -8 -10 -7 0
10 3 -6 0
10 -17 -15 -2 -10 0
10 -10 17 -7 0
10 17 7 -9 0
10 -4 -12 -14 0
10 15 -2 0
10 12 -3 -9 -13 0
10 -12 -6 0
10 -1 -14 0
10 -15 -9 -10 0
10 -8 12 15 5 0
10 4 8 0
10 17 -16 0
10 5 -13 0
10 -15 -12 0
10 12 10 -9 -4 0
10 -11 -14 15 0
10 -2 15 -16 0
10 -3 -6 10 0
10 -6 -12 7 0
10 -7 14 2 4 0
10 11 -16 0
10 -15 -13 0
10 16 -17 15 0
10 -8 9 -4 -5 0
10 -3 -5 -1 -13 0
10 -9 12 0
10 10 17 1 -14 0
10 5 14 0
10 -3 10 -17 9 0
10 17 1 2 0
10 -15 -6 13 9 0
10 13 -15 4 0
10 2 -14 0
10 -10 -13 -12 -16 0
10 -14 2 7 0
10 -5 -17 0
10 -1 10 -16 -14 0
10 -14 -1 -11 0
10 -9 12 0
10 -8 13 -10 0
10 3 -7 5 10 0
10 3 12 16 0
10 16 -17 0
1 -17 0
1 2 3 0
1 -9 0
1 -11 0
1 12 11 0
1 -6 5 0
1 -2 -14 0
1 1 0
1 -12 15 0
