p wcnf 15 51 20
20 -8 4 -15 0
20 -11 -14 -6 -1 0
20 -6 11 0
20 8 -2 0
20 10 -13 -11 5 0
20 2 12 0
20 -7 -12 3 14 0
20 1 -12 2 0
20 4 -13 -5 -2 0
20 -6 13 15 0
20 6 -12 11 0
20 7 -5 0
20 10 3 -6 0
20 12 -13 0
20 9 -1 7 0
20 3 8 -5 -10 0
20 -6 -7 -8 0
20 -3 12 -8 0
20 4 -7 -10 15 0
20 3 1 4 -2 0
20 -12 -6 0
20 6 4 0
20 -10 7 3 -13 0
20 -5 -1 0
20 7 13 0
20 15 3 0
20 3 -12 0
20 1 10 12 -8 0
20 -15 12 0
20 14 9 0
20 5 3 0
20 9 4 -5 0
1 -3 0
1 7 0
1 -1 0
1 -1 7 0
1 5 0
1 5 0
1 4 0
1 7 1 0
1 -4 0
1 11 0
1 14 0
1 -8 -5 0
1 -3 0
1 11 0
1 -9 0
1 11 0
1 2 8 0
1 -11 0
1 1 0
