p wcnf 15 59 21
21 7 -4 1 15 0
21 1 -15 3 0
21 -14 -9 3 -15 0
21 -13 9 -3 0
21 -14 10 3 0
21 3 2 1 -13 0
21 1 -2 8 0
21 -7 -15 -12 2 0
21 9 -5 -4 0
21 15 -1 11 -5 0
21 -10 -7 -8 13 0
21 -1 -6 -14 4 0
21 -15 -2 13 0
21 -2 5 1 0
21 -5 -4 -11 0
21 -6 9 0
21 -2 -13 -4 0
21 -12 -5 -6 10 0
21 -12 4 -9 0
21 1 -7 4 0
21 11 -10 0
21 6 12 5 0
21 -5 3 -2 0
21 -1 -6 4 0
21 7 2 0
21 12 -1 -4 9 0
21 8 -2 4 12 0
21 4 -15 6 11 0
21 -5 2 0
21 -10 -15 -7 -9 0
21 10 -6 15 2 0
21 -13 6 14 9 0
21 7 3 0
21 14 -4 -9 -5 0
21 7 -9 8 14 0
21 15 9 7 0
21 6 -7 0
21 4 3 5 0
21 -1 -15 11 0
1 -15 0
1 4 0
1 -14 0
1 9 0
1 4 0
1 5 2 0
1 4 0
1 6 0
1 -15 0
1 1 0
1 5 0
1 -7 0
1 -13 -5 0
1 4 0
1 -5 -7 0
1 15 9 0
1 -8 0
1 -11 0
1 -15 0
1 3 0
