p wcnf 19 57 17
17 16 10 14 -13 0
17 -4 8 -10 0
17 -9 19 5 0
17 14 4 -8 0
17 -10 16 19 -18 0
17 -13 12 0
17 19 1 -6 0
17 10 6 -2 0
17 1 13 11 5 0
17 1 13 0
17 19 -15 5 -6 0
17 13 19 8 0
17 -14 12 8 -6 0
17 -16 6 -4 1 0
17 -17 -6 8 19 0
17 10 -5 0
17 -8 -18 -17 0
17 -15 -18 10 0
17 3 -10 8 -18 0
17 -16 14 0
17 16 15 17 -5 0
17 -14 12 -15 11 0
17 -11 -6 0
17 -14 18 0
17 -13 -19 -11 16 0
17 7 3 0
17 -1 15 -10 18 0
17 -12 2 0
17 3 -13 -16 0
17 4 13 0
17 -14 -11 0
17 3 15 0
17 7 -1 18 -6 0
17 6 12 9 10 0
17 -19 8 5 0
17 18 14 -6 -8 0
17 -9 3 0
17 -3 -5 6 0
17 -7 -15 12 0
17 -6 5 2 0
17 10 8 2 0
1 -15 11 0
1 -18 0
1 17 0
1 17 -1 0
1 -14 7 0
1 15 0
1 -12 0
1 -13 0
1 18 0
1 8 17 0
1 5 0
1 18 0
1 4 -13 0
1 -11 -1 0
1 -9 0
1 -4 -18 0
