p wcnf 19 59 11
11 -10 -13 -7 -1 0
11 13 -6 18 -11 0
11 -9 14 -15 -2 0
11 18 -9 -17 -16 0
11 -6 -9 0
11 9 -12 15 0
11 9 -16 12 14 0
11 17 12 -1 -10 0
11 1 18 2 17 0
11 17 16 15 0
11 -4 11 7 0
11 -18 3 0
11 -10 -5 -4 0
11 3 -16 12 19 0
11 -4 11 3 -10 0
11 5 10 4 0
11 13 -7 18 0
11 2 15 9 -13 0
11 -15 8 0
11 14 -6 0
11 -5 -4 12 0
11 -9 3 -19 4 0
11 -5 7 2 -15 0
11 -12 -2 0
11 12 5 -10 -13 0
11 17 11 -19 0
11 3 11 0
11 7 1 -15 16 0
11 -2 8 16 -14 0
11 11 -14 -12 0
11 -17 -19 11 0
11 6 9 8 16 0
11 19 -3 0
11 -6 19 -7 0
11 -18 16 -2 0
11 6 -2 -16 -19 0
11 -7 2 5 0
11 -10 -15 2 14 0
11 -10 1 -13 -9 0
11 1 -12 0
11 2 3 15 12 0
11 -2 -6 -15 0
11 17 -10 6 0
11 14 16 7 18 0
11 17 8 -5 0
11 -8 -19 6 -18 0
11 -18 6 0
11 -8 -7 0
11 -4 -8 0
1 7 -2 0
1 -10 2 0
1 -18 0
1 12 9 0
1 6 19 0
1 15 0
1 13 0
1 14 -10 0
1 8 -16 0
1 11 0
