p wcnf 18 52 18
18 -12 16 1 -11 0
18 -12 -17 0
18 -7 -12 -2 0
18 8 -9 13 0
18 -9 15 0
18 -11 -8 -18 3 0
18 2 18 -8 -10 0
18 -17 18 -15 0
18 1 -4 -11 0
18 -16 10 17 0
18 -7 -10 1 3 0
18 8 -16 -15 0
18 14 -3 8 -15 0
18 2 -3 -5 15 0
18 -10 12 -17 18 0
18 -1 11 -4 0
18 4 11 12 0
18 -2 -7 -6 11 0
18 -10 -18 0
18 3 -4 15 0
18 2 18 12 15 0
18 -15 11 16 0
18 -5 -8 6 13 0
18 3 -17 0
18 16 5 0
18 -12 5 17 2 0
18 -13 -3 0
18 13 -2 -8 18 0
18 -18 -5 0
18 8 -7 3 -14 0
18 4 -7 0
18 15 4 12 -7 0
18 12 1 15 0
18 6 -17 0
18 14 12 17 0
1 -14 12 0
1 9 2 0
1 -16 0
1 17 -1 0
1 17 0
1 17 0
1 -5 14 0
1 -9 0
1 6 10 0
1 -6 17 0
1 -16 -18 0
1 18 0
1 18 0
1 -7 0
1 6 0
1 -2 0
1 1 0
