p wcnf 20 66 19
19 5 8 -18 -1 0
19 5 -18 -11 1 0
19 -11 9 0
19 -18 6 -8 12 0
19 2 18 -8 0
19 12 -19 -6 7 0
19 10 -15 3 -11 0
19 14 -12 0
19 17 16 2 -18 0
19 -11 17 0
19 5 8 0
19 -19 17 0
19 1 -6 13 12 0
19 -1 -17 -16 0
19 14 -12 0
19 -14 -18 -2 0
19 -20 19 0
19 10 -15 11 -3 0
19 -8 13 14 -11 0
19 -10 14 -12 0
19 -7 -9 -2 17 0
19 -16 4 0
19 -12 19 0
19 10 -17 0
19 -9 -11 -13 0
19 4 5 1 0
19 10 -3 6 15 0
19 12 13 -1 0
19 20 3 -7 0
19 20 -11 0
19 8 3 0
19 6 5 20 0
19 -12 14 5 3 0
19 -7 19 -6 -9 0
19 19 -17 -10 0
19 20 -3 0
19 -5 10 -20 0
19 -19 -14 -4 0
19 15 18 0
19 17 -7 18 0
19 13 -20 9 8 0
19 13 14 5 17 0
19 -19 10 -7 18 0
19 7 -17 0
19 -1 -2 5 -18 0
19 17 -9 13 -1 0
19 -14 -13 -15 0
19 19 -10 0
1 -3 11 0
1 8 0
1 3 1 0
1 9 0
1 19 0
1 -19 0
1 10 -17 0
1 19 0
1 -12 0
1 -16 0
1 14 2 0
1 -12 0
1 9 11 0
1 -2 0
1 17 0
1 14 0
1 18 -1 0
1 11 0
