p wcnf 13 40 14
14 -1 -13 -12 3 0
14 -6 -5 11 0
14 10 -8 -2 0
14 -10 6 0
14 1 -3 7 0
14 3 -1 8 0
14 10 -13 3 0
14 3 10 11 -7 0
14 -9 -3 11 13 0
14 -2 -10 9 -7 0
14 9 13 0
14 -4 -6 11 10 0
14 -3 -9 -5 12 0
14 4 -2 6 3 0
14 -11 10 8 -2 0
14 -1 -10 -4 0
14 6 2 -10 3 0
14 13 -2 0
14 -9 -8 -12 0
14 4 -1 8 -7 0
14 9 8 0
14 -6 -5 13 7 0
14 4 -11 0
14 -11 -12 10 6 0
14 2 -3 0
14 7 -8 3 -1 0
14 2 -1 -11 0
1 -7 4 0
1 -3 0
1 -2 3 0
1 12 0
1 12 0
1 -13 11 0
1 -10 0
1 -9 7 0
1 13 -7 0
1 -3 0
1 1 0
1 -7 0
1 4 0
