p wcnf 16 49 12
12 11 -14 8 0
12 12 -10 -7 -15 0
12 -16 9 0
12 -16 -11 1 0
12 2 -13 3 9 0
12 -16 -5 1 0
12 -5 10 -8 0
12 14 5 9 0
12 -14 -8 0
12 7 1 8 4 0
12 -12 16 -4 -9 0
12 -4 -6 5 0
12 14 1 4 0
12 16 -6 -9 -7 0
12 -2 8 6 0
12 13 15 0
12 -10 13 0
12 14 -15 0
12 7 6 -11 10 0
12 16 15 -1 0
12 -14 -5 9 0
12 -13 -7 -16 0
12 9 -2 11 0
12 -4 10 14 9 0
12 -7 -3 0
12 1 -9 0
12 7 -13 1 -6 0
12 7 -8 11 -5 0
12 10 -15 -16 0
12 -12 -7 -2 0
12 -14 -8 -6 0
12 -12 11 8 -9 0
12 -10 -6 -7 0
12 -1 -15 0
12 1 10 13 15 0
12 10 15 -7 -3 0
12 -16 -12 14 3 0
12 -10 3 16 0
1 -16 0
1 -6 9 0
1 5 -4 0
1 -11 0
1 12 0
1 -9 0
1 -14 0
1 -1 0
1 3 0
1 -10 -3 0
1 -13 0
