p wcnf 18 49 19
19 16 -4 13 -2 0
19 -14 -12 0
19 -14 10 -6 -3 0
19 -6 -14 16 10 0
19 -8 -7 -16 0
19 -17 11 0
19 3 -17 -9 -13 0
19 -2 13 14 0
19 2 9 0
19 -5 -3 13 0
19 -11 -7 4 13 0
19 15 -6 -3 0
19 -9 -16 -4 11 0
19 -9 -18 11 0
19 11 7 0
19 -5 14 17 0
19 -9 -15 0
19 18 -6 2 0
19 8 -5 0
19 1 17 0
19 6 16 7 0
19 -9 -7 0
19 6 -13 17 12 0
19 -11 -7 10 0
19 -12 -14 -11 -13 0
19 17 9 13 -4 0
19 16 6 0
19 6 -1 -13 17 0
19 -5 2 0
19 -6 -14 -4 0
19 4 15 -17 0
1 -5 2 0
1 -5 17 0
1 -14 -4 0
1 -14 0
1 -11 0
1 -17 0
1 -8 0
1 -15 0
1 12 0
1 15 0
1 6 -3 0
1 9 0
1 -1 0
1 -6 0
1 8 0
1 5 8 0
1 -12 0
1 -9 0
