p wcnf 19 46 7
7 -2 17 0
7 -4 -8 0
7 4 -8 12 2 0
7 -15 -11 0
7 -13 -16 4 0
7 -9 8 0
7 -12 -8 15 3 0
7 12 13 0
7 2 6 0
7 -18 2 0
7 -7 16 -14 8 0
7 15 -19 -9 0
7 -2 -10 0
7 1 -19 -16 0
7 9 -12 19 0
7 -16 3 11 -9 0
7 -15 -12 0
7 -2 -13 0
7 -14 13 0
7 9 -5 0
7 -1 8 -4 -17 0
7 -14 2 6 1 0
7 14 -18 3 16 0
7 5 -18 -3 0
7 2 3 8 -16 0
7 10 18 0
7 16 13 1 15 0
7 -13 9 -2 0
7 18 -5 0
7 4 -17 -5 0
7 -2 -4 -14 0
7 -16 -7 -14 -18 0
7 19 15 0
7 -6 10 -11 0
7 11 -13 17 -12 0
7 -7 -18 3 0
7 7 -3 9 15 0
7 16 -9 -2 -15 0
7 17 -6 1 -11 0
7 -14 11 9 0
1 -15 0
1 -6 0
1 5 -10 0
1 -16 0
1 1 0
1 13 -18 0
