p wcnf 20 48 16
16 -15 1 5 0
16 3 11 0
16 -14 8 16 2 0
16 14 12 3 0
16 12 -13 20 0
16 4 -1 -17 0
16 -7 13 0
16 -14 19 0
16 -2 -9 0
16 11 16 13 0
16 -20 -4 12 0
16 8 -6 -2 4 0
16 19 14 6 0
16 10 -3 0
16 16 7 8 5 0
16 -16 -19 0
16 -17 -12 20 0
16 4 6 2 -12 0
16 -14 -8 6 17 0
16 -4 12 0
16 4 -1 3 -9 0
16 -10 4 9 14 0
16 4 -3 0
16 5 12 0
16 15 14 13 0
16 15 -19 1 16 0
16 20 -1 14 -2 0
16 -7 -20 14 0
16 20 -13 0
16 19 -20 0
16 -15 -5 -8 -11 0
16 -2 -19 1 5 0
16 -14 -12 -16 0
1 13 0
1 -20 0
1 18 0
1 -3 0
1 -8 20 0
1 -6 0
1 7 -8 0
1 20 6 0
1 -15 -19 0
1 15 0
1 8 0
1 17 0
1 -16 0
1 2 0
1 -7 0
