p wcnf 17 41 12
12 12 -7 0
12 8 5 0
12 15 -6 -7 8 0
12 -1 -6 9 11 0
12 -7 11 1 0
12 8 -1 -6 -14 0
12 -14 -16 -6 0
12 3 12 14 0
12 -5 10 -16 0
12 -2 10 -17 1 0
12 -15 -4 0
12 -6 12 -9 0
12 -1 11 -15 14 0
12 -13 -10 0
12 16 -2 14 -1 0
12 -9 1 0
12 14 17 -16 0
12 16 7 0
12 9 -6 -3 0
12 -5 -2 0
12 -8 7 -15 -16 0
12 -8 -10 0
12 16 -2 7 0
12 -14 -16 -4 -11 0
12 -17 -13 0
12 -7 -8 0
12 -14 16 0
12 9 -17 -5 0
12 -8 17 2 -1 0
12 -10 1 13 0
1 3 0
1 14 0
1 -8 -14 0
1 17 -3 0
1 4 0
1 -16 0
1 11 13 0
1 8 0
1 -4 0
1 10 0
1 -6 0
