p wcnf 18 41 8
8 -7 -16 11 3 0
8 3 -10 0
8 -8 -13 6 0
8 3 8 0
8 -4 -7 -13 -11 0
8 -13 8 1 -10 0
8 -5 3 2 0
8 -17 11 0
8 -15 -4 0
8 9 -8 0
8 9 -4 3 0
8 18 2 17 -6 0
8 -12 16 -8 -10 0
8 -17 8 -4 16 0
8 -3 9 -5 4 0
8 6 10 14 0
8 -17 10 -4 2 0
8 11 13 0
8 -9 12 -11 0
8 18 6 -7 -4 0
8 11 -10 0
8 -13 10 -2 0
8 -16 -8 -10 6 0
8 9 -15 -2 -16 0
8 -11 -12 -13 0
8 18 13 0
8 10 -5 0
8 -15 8 10 2 0
8 -8 -15 1 0
8 18 7 -1 -14 0
8 15 5 -4 6 0
8 -15 -4 0
8 -2 12 0
8 14 -15 0
1 6 0
1 -4 -1 0
1 2 0
1 15 0
1 -7 0
1 7 -11 0
1 -9 0
