p wcnf 11 48 20
20 2 1 0
20 8 2 -10 0
20 -9 -7 6 -10 0
20 7 8 9 -5 0
20 -3 -10 4 0
20 -6 -5 4 -8 0
20 -5 8 -6 -10 0
20 -9 10 -8 0
20 1 -10 3 0
20 -4 -8 -10 3 0
20 -8 -5 0
20 -8 -7 -9 3 0
20 10 4 0
20 -1 2 0
20 9 -6 4 0
20 7 -8 -3 -9 0
20 -5 7 0
20 -3 5 2 0
20 -2 8 -6 -9 0
20 -8 -1 -5 0
20 -5 -1 -10 -2 0
20 -1 -3 7 0
20 -6 -5 0
20 -8 -6 -3 0
20 -10 6 0
20 4 -11 -6 -2 0
20 1 3 6 0
20 -1 4 0
20 -8 6 0
1 -8 0
1 9 0
1 -4 -11 0
1 6 -9 0
1 -2 10 0
1 -5 0
1 9 0
1 11 7 0
1 -1 0
1 8 -9 0
1 -1 -10 0
1 6 -2 0
1 -10 0
1 7 0
1 5 0
1 -7 6 0
1 -4 -9 0
1 1 0
1 4 9 0
