p wcnf 18 47 18
18 8 7 3 0
18 -6 -4 0
18 10 15 0
18 -2 -10 -18 -4 0
18 11 -3 0
18 11 -7 -14 -3 0
18 -6 -12 -17 0
18 9 -6 15 0
18 -18 16 0
18 4 14 -16 0
18 -16 -17 -8 0
18 -18 -4 0
18 -10 7 11 -6 0
18 8 9 -7 17 0
18 6 3 0
18 -17 -3 -7 0
18 -8 -15 7 0
18 16 -4 3 0
18 -12 14 7 0
18 1 -5 10 0
18 18 6 0
18 -1 -2 9 0
18 18 1 0
18 -3 12 0
18 10 1 0
18 -16 14 -18 0
18 3 4 -5 -1 0
18 -3 7 -12 -8 0
18 17 14 0
18 5 -18 0
1 -7 0
1 -3 0
1 3 0
1 6 -5 0
1 14 0
1 5 4 0
1 -5 0
1 -17 0
1 -12 0
1 -8 0
1 7 6 0
1 9 0
1 1 16 0
1 -11 0
1 17 -11 0
1 -14 0
1 9 0
