p wcnf 14 48 13
13 -7 6 3 0
13 -3 11 -14 0
13 11 -1 0
13 -10 8 4 0
13 -14 2 0
13 -10 2 -6 -5 0
13 -10 4 5 0
13 -6 -5 9 0
13 9 4 1 12 0
13 4 7 -6 0
13 8 -14 0
13 -11 -13 -2 -5 0
13 9 -5 -7 -12 0
13 -3 -7 2 10 0
13 1 10 -8 0
13 3 -6 11 0
13 14 9 -12 0
13 6 -9 -7 3 0
13 -4 1 -9 0
13 3 13 0
13 -13 -14 0
13 -14 11 0
13 -1 -7 10 5 0
13 2 -8 0
13 -5 -14 0
13 -12 -9 0
13 4 6 0
13 -12 9 0
13 9 -4 0
13 -14 3 0
13 -5 -3 -2 6 0
13 2 -5 0
13 10 2 0
13 -3 -1 0
13 1 -8 4 -6 0
13 -9 -12 0
1 -11 0
1 7 -13 0
1 8 0
1 -10 -5 0
1 5 0
1 -11 0
1 -9 -10 0
1 -8 0
1 5 0
1 14 1 0
1 -13 3 0
1 -5 -3 0
