p wcnf 19 44 14
14 5 -3 -1 0
14 17 13 0
14 -1 8 -6 0
14 2 -15 0
14 1 3 2 0
14 -8 6 0
14 -12 -14 11 0
14 15 18 14 -6 0
14 -1 -7 -19 0
14 -17 3 0
14 5 2 0
14 18 -6 -11 -7 0
14 18 11 6 7 0
14 13 -7 -6 -9 0
14 1 -10 13 7 0
14 -11 -4 -7 16 0
14 8 -11 -14 0
14 -9 -13 0
14 15 -17 9 0
14 1 -16 9 0
14 -2 -7 6 0
14 1 16 18 -6 0
14 7 13 0
14 -15 -3 0
14 -19 -13 0
14 15 4 6 0
14 11 -18 -17 0
14 16 -8 -4 -6 0
14 -6 -8 -10 0
14 -13 4 -5 10 0
14 3 -5 0
1 -16 0
1 3 0
1 -5 0
1 -16 12 0
1 11 -3 0
1 -13 -17 0
1 4 12 0
1 17 0
1 19 5 0
1 13 0
1 -6 -13 0
1 -13 -6 0
1 -1 -14 0
