p wcnf 12 48 21
21 -2 5 -1 0
21 4 -6 1 0
21 -11 6 12 -5 0
21 -9 6 -7 0
21 -4 12 -5 0
21 10 -6 4 0
21 -11 5 0
21 -8 9 0
21 4 5 7 2 0
21 -6 11 0
21 -3 9 5 12 0
21 5 -12 -1 10 0
21 4 2 -12 0
21 12 4 -2 0
21 -11 2 0
21 9 -12 5 0
21 -7 5 9 -6 0
21 3 -12 8 -5 0
21 8 12 0
21 7 -11 0
21 9 1 -4 0
21 4 -11 0
21 2 -8 0
21 6 1 -3 -2 0
21 1 3 0
21 3 -10 5 0
21 -12 -7 8 0
21 -6 -9 -7 10 0
1 4 0
1 -4 0
1 11 -4 0
1 -7 0
1 1 0
1 -7 0
1 -3 0
1 -2 -4 0
1 -8 0
1 6 -5 0
1 9 0
1 11 -4 0
1 8 0
1 -6 9 0
1 -3 0
1 -7 0
1 9 0
1 -1 0
1 8 0
1 8 3 0
