p wcnf 20 41 16
16 -18 -9 14 0
16 6 -19 1 0
16 -18 5 15 -13 0
16 10 16 0
16 7 10 -14 4 0
16 18 1 0
16 -18 -19 -9 16 0
16 12 8 0
16 17 10 0
16 3 -4 -9 -12 0
16 1 5 6 -19 0
16 -14 -17 -15 0
16 2 -18 -13 0
16 4 15 -3 0
16 14 17 0
16 -13 -15 -9 8 0
16 -15 -12 0
16 -8 -1 12 0
16 -18 1 17 10 0
16 14 -12 -4 -13 0
16 -4 16 18 0
16 -2 20 -3 0
16 -5 14 -1 16 0
16 19 14 1 0
16 1 14 -2 0
16 -13 -10 3 0
1 17 8 0
1 13 0
1 9 0
1 -16 -8 0
1 12 0
1 -5 18 0
1 -19 0
1 -5 0
1 5 0
1 -9 -15 0
1 -14 -16 0
1 -20 -8 0
1 -14 0
1 16 0
1 18 0
