p wcnf 20 65 13
13 -2 -3 -18 -11 0
13 -9 12 -11 0
13 -4 10 0
13 12 -6 9 -17 0
13 -15 8 0
13 15 8 -9 18 0
13 16 7 0
13 12 7 -5 20 0
13 -13 3 0
13 -8 17 0
13 14 7 -18 0
13 -7 3 -1 0
13 12 -17 -9 -20 0
13 20 3 0
13 -18 1 9 20 0
13 15 -13 0
13 -10 -14 -3 0
13 -8 15 10 0
13 -10 -18 0
13 -11 -1 0
13 13 -4 -3 9 0
13 -15 -5 0
13 8 -2 19 -17 0
13 -19 -6 10 -12 0
13 18 -1 11 -12 0
13 14 9 -16 1 0
13 -14 9 -18 -8 0
13 5 8 -19 6 0
13 9 -6 16 7 0
13 12 14 0
13 15 5 0
13 5 8 -3 0
13 16 4 -5 2 0
13 -8 1 0
13 19 10 1 14 0
13 19 10 14 -16 0
13 -7 -1 0
13 16 12 6 0
13 -16 1 3 0
13 -19 -9 0
13 19 9 11 0
13 17 13 2 0
13 -20 -3 -2 0
13 -6 8 3 0
13 6 -7 -19 0
13 17 -10 0
13 -16 -3 -15 13 0
13 -17 -16 8 -6 0
13 -8 14 5 13 0
13 3 -11 -5 12 0
13 10 -7 0
13 12 -17 -19 -1 0
13 4 -18 2 0
1 -12 3 0
1 -10 0
1 -14 9 0
1 -3 -15 0
1 -2 0
1 7 0
1 19 0
1 -5 0
1 16 0
1 4 0
1 -1 0
1 -12 0
