p wcnf 17 58 19
19 1 14 11 10 0
19 17 7 15 0
19 -1 12 6 0
19 -14 4 -9 -6 0
19 17 7 12 0
19 10 1 0
19 16 -4 -7 -11 0
19 11 5 -12 1 0
19 -7 -3 0
19 -6 -4 12 0
19 8 -5 3 0
19 -14 11 0
19 -1 2 16 -10 0
19 -16 6 10 2 0
19 -1 12 -11 -6 0
19 10 -6 0
19 11 -16 0
19 7 8 5 2 0
19 -8 -11 5 0
19 16 -3 0
19 -11 7 -5 0
19 14 -11 0
19 -3 -8 -10 0
19 14 13 -15 3 0
19 8 12 11 -5 0
19 8 -16 7 0
19 -6 8 0
19 -1 -14 17 11 0
19 16 -11 0
19 -1 3 -6 -15 0
19 10 -7 0
19 12 -11 -15 0
19 16 8 0
19 2 13 12 -17 0
19 -9 6 10 0
19 12 15 0
19 6 -3 -1 0
19 3 1 0
19 2 16 -17 1 0
19 -14 6 10 15 0
1 12 0
1 7 0
1 9 -16 0
1 9 -10 0
1 -4 2 0
1 4 0
1 -8 -4 0
1 6 0
1 -7 0
1 4 0
1 -11 15 0
1 -11 -2 0
1 -16 0
1 9 15 0
1 -1 0
1 10 0
1 -1 -7 0
1 -17 0
