p wcnf 13 52 21
21 -8 10 -6 0
21 -1 -10 4 7 0
21 7 9 -13 -2 0
21 2 -3 10 -12 0
21 -8 -3 -9 10 0
21 13 3 0
21 12 6 0
21 -13 5 1 10 0
21 -7 5 -8 0
21 12 -8 0
21 -4 -11 0
21 13 -7 0
21 -12 -3 -10 0
21 5 8 0
21 12 3 -8 0
21 4 -9 0
21 5 7 0
21 11 3 10 -9 0
21 10 3 0
21 13 -1 -12 -10 0
21 13 6 0
21 3 4 6 7 0
21 9 -1 0
21 10 -4 0
21 8 11 0
21 8 1 -7 0
21 -1 10 0
21 13 7 -1 0
21 -10 6 -2 -1 0
21 10 9 -5 11 0
21 -2 -10 -12 0
21 11 -2 -3 0
1 -6 -2 0
1 -7 0
1 11 8 0
1 -7 -10 0
1 -4 0
1 -11 -7 0
1 10 2 0
1 -3 0
1 -1 6 0
1 -13 5 0
1 3 0
1 11 0
1 7 0
1 7 0
1 3 0
1 -5 7 0
1 -13 0
1 -1 0
1 10 -6 0
1 1 -12 0
