p wcnf 14 46 8
8 14 -2 1 9 0
8 10 8 0
8 11 -2 9 -12 0
8 -8 -14 -13 0
8 -7 -4 -10 0
8 10 -12 -3 6 0
8 -7 -11 -5 -9 0
8 -12 -13 14 0
8 -5 -12 10 0
8 7 -9 11 0
8 -8 -4 5 -10 0
8 -14 -9 -4 0
8 9 3 12 0
8 3 -8 -13 9 0
8 -10 -11 5 0
8 12 -4 0
8 5 -9 -1 0
8 -13 14 5 2 0
8 -6 -3 -13 -5 0
8 -1 3 7 9 0
8 10 -3 4 0
8 10 1 0
8 -2 8 -14 -10 0
8 -5 -14 -6 0
8 12 -11 -2 9 0
8 6 11 9 1 0
8 -7 2 11 14 0
8 -13 6 -7 0
8 12 13 0
8 -2 -8 13 0
8 -9 -3 6 14 0
8 2 -5 -4 -10 0
8 9 -14 7 12 0
8 12 2 0
8 14 -1 9 0
8 -11 7 3 -5 0
8 1 13 12 0
8 -10 -14 -12 0
8 5 14 6 11 0
1 12 0
1 -12 -10 0
1 10 0
1 1 -5 0
1 8 0
1 14 10 0
1 -10 6 0
