p wcnf 15 43 8
8 -6 -5 0
8 5 -2 10 0
8 6 15 8 10 0
8 6 14 3 4 0
8 -13 12 2 10 0
8 11 6 0
8 1 4 0
8 2 15 0
8 -1 -7 -9 0
8 -6 -7 14 0
8 -7 2 -3 0
8 8 1 -2 10 0
8 -6 10 0
8 4 -7 -10 6 0
8 -5 -1 -10 0
8 -7 13 0
8 15 -12 14 0
8 15 -13 5 3 0
8 -5 -14 -4 1 0
8 13 12 -15 14 0
8 -4 14 10 5 0
8 4 12 11 -10 0
8 -14 4 1 11 0
8 15 1 0
8 14 2 1 0
8 7 15 -14 4 0
8 -4 2 0
8 -14 12 -10 0
8 2 14 8 0
8 14 7 -2 0
8 -6 -15 -3 9 0
8 10 -4 5 -12 0
8 5 -8 -10 -11 0
8 -2 -3 6 -13 0
8 10 6 4 11 0
8 13 -15 0
1 -14 3 0
1 13 0
1 -1 2 0
1 -6 0
1 14 0
1 2 0
1 8 0
