p wcnf 19 46 11
11 -15 -14 -18 -19 0
11 -10 -3 -14 -8 0
11 18 15 -3 0
11 2 13 10 15 0
11 2 -19 0
11 -18 13 -3 0
11 15 -12 8 0
11 -7 16 10 0
11 -6 8 14 0
11 -16 17 0
11 -19 4 7 -6 0
11 11 7 0
11 1 -18 0
11 -17 3 7 -15 0
11 -4 18 0
11 7 -6 2 12 0
11 -6 -3 -11 0
11 -15 -17 0
11 18 6 8 0
11 -10 -1 -18 -12 0
11 4 -8 15 0
11 -8 17 16 -5 0
11 8 6 -15 0
11 -15 -6 0
11 -16 1 -8 0
11 -5 -2 0
11 -7 -16 17 10 0
11 -4 -6 -14 0
11 -19 14 16 9 0
11 -19 -10 -2 0
11 5 14 18 -8 0
11 3 14 6 0
11 -15 2 0
11 -4 -9 7 10 0
11 -13 -9 -10 0
11 -15 -2 9 -11 0
1 7 0
1 11 -16 0
1 -1 0
1 -4 0
1 -8 0
1 -12 0
1 -16 -15 0
1 -5 -8 0
1 -7 8 0
1 -12 0
