p wcnf 15 56 18
18 4 2 0
18 6 1 -12 0
18 14 -12 0
18 6 -15 0
18 2 -9 3 -12 0
18 -14 -5 0
18 7 8 -15 0
18 -14 -15 -10 0
18 -13 -6 0
18 12 3 9 0
18 10 -5 -12 -2 0
18 5 -12 0
18 -1 -5 0
18 -15 3 -10 0
18 -14 7 0
18 6 -10 9 1 0
18 11 -5 -2 0
18 -5 8 0
18 11 -1 0
18 -14 4 0
18 -4 -12 0
18 -13 -15 -6 -8 0
18 -12 -3 10 15 0
18 15 4 0
18 5 -7 0
18 -9 11 -2 0
18 -7 -12 0
18 14 -15 3 0
18 6 -8 0
18 15 4 0
18 3 -12 -5 0
18 -11 -6 15 -9 0
18 -1 -12 0
18 2 9 14 -1 0
18 -8 -4 0
18 -2 -3 0
18 -7 6 0
18 8 -3 -13 6 0
18 13 1 -12 0
1 -15 -11 0
1 -12 0
1 8 0
1 -9 0
1 -4 0
1 3 -7 0
1 -8 9 0
1 -7 0
1 14 0
1 15 0
1 6 0
1 -12 14 0
1 3 -5 0
1 15 12 0
1 1 0
1 4 0
1 9 0
