p wcnf 19 41 12
12 -19 -8 -3 0
12 16 -7 -10 14 0
12 6 -14 4 0
12 -17 8 5 0
12 2 19 0
12 2 -11 -6 -14 0
12 17 5 0
12 -9 -19 7 0
12 19 15 6 9 0
12 15 -6 0
12 3 17 0
12 1 11 -19 0
12 -3 11 2 0
12 -2 13 -14 -4 0
12 -2 12 13 18 0
12 3 14 0
12 -1 19 0
12 -18 17 10 0
12 -15 1 -9 0
12 -10 -14 4 0
12 18 17 -10 -9 0
12 5 -1 0
12 -4 2 19 -14 0
12 -7 -1 9 10 0
12 14 -9 -19 -16 0
12 14 17 -2 0
12 5 -9 0
12 18 7 -6 0
12 -18 -1 0
12 4 -5 0
1 6 2 0
1 14 0
1 -15 0
1 9 0
1 -3 0
1 -13 -17 0
1 -12 14 0
1 7 0
1 -11 0
1 -3 0
1 12 3 0
