p wcnf 20 74 18
18 -14 20 3 1 0
18 -7 -3 14 0
18 19 -18 3 -1 0
18 -6 8 19 0
18 -1 19 -6 0
18 -12 -13 11 0
18 -20 10 5 -8 0
18 -19 17 -10 -2 0
18 -15 -20 -13 0
18 5 -10 -4 0
18 -1 -9 6 12 0
18 -17 8 16 0
18 2 3 9 0
18 20 -8 0
18 -14 -11 0
18 -8 -16 -9 0
18 -3 -4 0
18 -15 16 -3 -5 0
18 20 -11 -1 0
18 -6 11 -5 16 0
18 18 -6 0
18 -19 6 0
18 -2 3 15 -14 0
18 16 -6 0
18 -16 -4 -6 0
18 13 -2 -17 0
18 -5 7 -19 0
18 4 1 -2 -19 0
18 -10 12 0
18 -3 -9 13 15 0
18 -18 -2 3 14 0
18 18 9 -5 0
18 -8 9 -17 0
18 -17 11 14 0
18 -5 -1 -2 -7 0
18 -11 12 0
18 -1 18 -6 0
18 6 -14 0
18 10 -20 -8 0
18 20 -1 -3 0
18 -6 -9 0
18 9 -20 -10 12 0
18 -5 -20 -11 9 0
18 20 7 -10 -6 0
18 -5 11 6 -16 0
18 -1 17 0
18 -7 15 -17 0
18 7 18 0
18 -2 10 4 0
18 -10 2 19 -15 0
18 -6 -11 0
18 14 -8 0
18 16 -1 0
18 -17 20 0
18 -1 4 0
18 -6 -14 -20 2 0
18 -4 8 15 -7 0
1 18 0
1 -2 0
1 -19 0
1 12 0
1 4 9 0
1 9 0
1 10 4 0
1 -16 0
1 16 0
1 -13 0
1 -18 7 0
1 -16 0
1 -14 0
1 6 0
1 18 0
1 15 0
1 -18 0
