p wcnf 19 54 18
18 8 7 15 0
18 -4 -1 -6 0
18 19 13 -18 17 0
18 12 15 2 -6 0
18 12 -6 -15 -5 0
18 -17 7 18 0
18 19 13 0
18 -19 13 -16 0
18 -17 -3 13 0
18 9 11 -10 0
18 8 -18 0
18 -16 15 -8 5 0
18 -3 19 -7 0
18 -8 3 13 0
18 5 12 0
18 -14 -15 9 -11 0
18 19 -14 4 0
18 7 5 9 0
18 16 -18 -13 0
18 16 -8 0
18 18 10 0
18 -10 -6 0
18 -3 -1 -18 6 0
18 -16 8 0
18 -7 8 6 -5 0
18 -19 5 0
18 4 -15 11 0
18 2 4 11 -6 0
18 -4 -19 0
18 -16 -7 0
18 -13 18 17 -6 0
18 -11 3 14 -17 0
18 9 -2 -8 10 0
18 17 14 -3 0
18 18 -7 14 0
18 -7 -10 16 9 0
18 -5 15 14 -9 0
1 -5 16 0
1 -6 0
1 -1 -12 0
1 -11 12 0
1 -19 0
1 1 0
1 -1 -11 0
1 13 0
1 9 -10 0
1 9 0
1 -2 0
1 4 0
1 -16 0
1 11 17 0
1 -17 0
1 14 0
1 13 6 0
