p wcnf 14 51 21
21 -13 14 -8 0
21 12 4 0
21 -11 -4 12 0
21 -5 -2 -3 4 0
21 11 13 3 -7 0
21 6 -7 -14 -5 0
21 -5 2 -7 -11 0
21 13 -8 14 1 0
21 11 4 5 0
21 4 -10 9 0
21 -7 6 0
21 -7 -5 0
21 2 3 0
21 -1 12 -10 0
21 -5 12 0
21 13 -14 12 5 0
21 8 -5 11 1 0
21 8 13 -1 0
21 13 -9 1 2 0
21 14 -4 12 -6 0
21 -1 4 0
21 1 -6 8 -11 0
21 -13 4 2 0
21 -6 12 0
21 6 -8 -9 0
21 -9 4 13 0
21 -12 -5 0
21 -12 -7 0
21 8 -13 3 0
21 4 -10 -13 0
21 -3 -5 2 14 0
1 1 0
1 14 0
1 11 0
1 -6 0
1 14 0
1 -6 0
1 -11 -4 0
1 -9 0
1 13 0
1 2 -14 0
1 14 0
1 -7 0
1 -7 1 0
1 -3 2 0
1 10 -6 0
1 9 -2 0
1 11 0
1 -2 -5 0
1 -3 0
1 6 0
