p wcnf 15 45 16
16 -12 9 -7 0
16 2 -4 0
16 -8 -3 0
16 9 14 0
16 8 -3 14 0
16 -7 2 14 6 0
16 6 15 -14 4 0
16 -4 -11 14 2 0
16 4 -11 13 -8 0
16 -3 4 0
16 2 -6 0
16 4 -11 -9 -15 0
16 5 3 13 0
16 -10 -12 14 0
16 -8 -12 0
16 -5 8 13 -3 0
16 5 -10 -11 0
16 15 3 0
16 1 -6 -12 0
16 13 12 0
16 -12 -5 -6 -4 0
16 13 -8 -7 -6 0
16 -9 8 13 0
16 -14 -8 0
16 -1 -13 0
16 -1 -5 -2 0
16 -5 12 3 -13 0
16 -14 15 9 0
16 -5 -12 -1 13 0
16 -14 -4 11 -15 0
1 12 0
1 4 2 0
1 13 3 0
1 3 -14 0
1 -9 0
1 -15 -2 0
1 14 0
1 -13 2 0
1 -14 -10 0
1 15 0
1 13 0
1 -11 0
1 5 12 0
1 6 0
1 -7 12 0
