p wcnf 15 47 20
20 -5 -7 0
20 -3 -8 1 9 0
20 13 15 0
20 -14 -12 -15 6 0
20 -15 -3 -6 0
20 10 1 -6 0
20 10 -7 12 0
20 3 7 0
20 -14 -13 0
20 -14 -15 8 -4 0
20 -6 13 0
20 -12 -15 0
20 2 3 1 8 0
20 4 -9 6 0
20 -13 -12 4 0
20 -13 11 6 -5 0
20 14 -1 15 0
20 -5 6 -1 0
20 6 -3 13 -14 0
20 -7 13 -14 9 0
20 15 10 -5 -8 0
20 8 -9 -6 0
20 -4 7 -11 -15 0
20 5 4 -14 13 0
20 9 15 -13 0
20 -9 -14 7 5 0
20 -9 1 -10 12 0
20 -10 -15 1 2 0
1 -10 0
1 1 0
1 4 0
1 -2 12 0
1 12 0
1 -15 0
1 14 0
1 3 0
1 3 -7 0
1 1 9 0
1 -13 -2 0
1 7 9 0
1 15 0
1 1 -10 0
1 6 11 0
1 -5 0
1 -4 0
1 9 0
1 13 0
