p wcnf 20 48 19
19 11 8 0
19 -7 -1 0
19 -19 9 4 0
19 6 -9 14 0
19 -2 14 -7 3 0
19 6 14 13 16 0
19 6 7 16 19 0
19 6 10 13 5 0
19 20 3 -17 16 0
19 -18 16 0
19 2 -20 -10 -9 0
19 12 -4 1 0
19 14 18 3 0
19 -1 11 15 -8 0
19 -16 -14 0
19 -13 -14 0
19 -1 17 7 16 0
19 -2 10 0
19 11 -9 5 20 0
19 4 -9 5 -13 0
19 4 -19 -8 9 0
19 -4 -6 0
19 -10 -3 17 0
19 12 -4 3 0
19 14 6 0
19 -18 -11 0
19 17 18 15 0
19 -2 13 -9 5 0
19 8 -18 -13 16 0
19 -11 -12 -14 10 0
1 19 -17 0
1 -15 0
1 5 0
1 -15 0
1 -20 -12 0
1 -15 0
1 -20 0
1 -14 0
1 -16 0
1 -17 9 0
1 -10 0
1 9 0
1 -14 0
1 17 0
1 15 0
1 11 0
1 -17 0
1 -17 0
