p wcnf 18 40 14
14 18 -2 -6 0
14 -7 -9 -15 5 0
14 16 -11 -15 0
14 -16 -2 -5 0
14 17 7 0
14 -1 -15 9 0
14 -8 14 -4 -10 0
14 -3 14 0
14 -18 -17 16 -11 0
14 5 16 11 0
14 14 -4 2 0
14 -2 15 -5 -16 0
14 4 -8 -7 15 0
14 16 -14 -8 0
14 -3 2 0
14 -17 1 -10 -4 0
14 5 6 2 7 0
14 1 15 11 0
14 1 18 0
14 -7 -3 2 -6 0
14 1 -14 0
14 13 -16 11 0
14 5 -9 -17 -8 0
14 -15 -7 0
14 5 3 -2 0
14 -18 -4 -16 15 0
14 -15 4 11 -10 0
1 -17 0
1 -16 13 0
1 -6 0
1 -10 0
1 11 0
1 -4 0
1 14 0
1 15 0
1 18 0
1 4 -18 0
1 18 6 0
1 -2 0
1 -1 11 0
