p wcnf 17 44 14
14 -14 13 5 0
14 2 -9 0
14 -6 -2 -9 0
14 2 -14 12 0
14 6 -5 0
14 -12 -13 6 0
14 -10 -5 -4 0
14 -16 17 0
14 17 -6 14 -12 0
14 -3 10 7 -9 0
14 -14 -8 0
14 10 1 -6 9 0
14 -10 -9 3 0
14 -4 1 9 -6 0
14 -17 -7 -9 0
14 -14 -10 0
14 10 -14 0
14 2 17 0
14 1 7 -11 0
14 17 6 -16 0
14 -6 -9 2 0
14 15 1 -4 0
14 16 9 -6 0
14 -11 -7 -14 3 0
14 4 -13 1 2 0
14 -1 3 -10 0
14 14 -5 -8 3 0
14 11 -4 10 -14 0
14 -5 9 16 0
14 10 9 0
14 11 -8 -15 0
1 -11 0
1 4 0
1 -6 -8 0
1 15 1 0
1 3 -5 0
1 -17 -1 0
1 11 0
1 14 0
1 8 0
1 7 -17 0
1 -16 0
1 5 0
1 3 4 0
