p wcnf 19 42 16
16 10 -14 0
16 -13 15 -14 0
16 9 -14 18 -10 0
16 5 -14 0
16 -14 -19 0
16 9 -11 -19 16 0
16 9 6 -18 0
16 12 1 -10 -15 0
16 -8 -10 17 0
16 13 5 -17 -19 0
16 3 -12 0
16 9 6 -5 1 0
16 1 3 0
16 5 10 -19 0
16 2 -13 0
16 -12 16 6 -13 0
16 -13 8 14 0
16 -16 4 -8 -12 0
16 -9 18 -7 5 0
16 -13 -5 0
16 14 3 0
16 10 -3 -13 -2 0
16 1 -4 12 -13 0
16 13 -3 -12 0
16 -13 -2 0
16 -10 -14 3 11 0
16 4 5 0
1 7 -3 0
1 1 0
1 3 0
1 10 19 0
1 -19 0
1 -17 0
1 13 0
1 -11 -8 0
1 -4 0
1 -4 0
1 -10 0
1 -18 0
1 2 0
1 -13 15 0
1 16 9 0
