p wcnf 13 54 20
20 -12 6 0
20 13 -5 0
20 3 9 12 1 0
20 -6 2 4 -3 0
20 5 1 6 -4 0
20 -6 8 -12 -3 0
20 2 11 -1 -9 0
20 13 -5 -3 0
20 -10 8 0
20 12 -11 -10 0
20 -11 -6 0
20 4 -1 -7 0
20 -12 -13 -5 11 0
20 -2 7 13 4 0
20 -4 11 0
20 2 10 -12 0
20 -2 -13 -3 0
20 -8 -5 -13 12 0
20 -12 11 0
20 11 12 2 0
20 3 8 9 -2 0
20 7 -3 13 -11 0
20 8 5 -6 7 0
20 8 -1 -7 -11 0
20 12 2 3 0
20 -1 -5 0
20 11 -8 7 0
20 9 8 12 -11 0
20 1 2 6 4 0
20 3 9 -13 -10 0
20 7 -4 2 5 0
20 12 4 -13 11 0
20 2 -11 3 1 0
20 -2 -11 0
20 -7 -12 0
1 9 0
1 4 -9 0
1 13 0
1 -2 0
1 -8 0
1 1 -6 0
1 13 0
1 -13 3 0
1 -9 0
1 3 0
1 -1 0
1 -13 0
1 -4 0
1 10 0
1 7 0
1 -1 0
1 -3 0
1 -2 9 0
1 4 13 0
