p wcnf 18 53 20
20 -18 -13 14 0
20 -5 12 6 0
20 -18 4 -8 -2 0
20 -14 13 -5 8 0
20 5 8 0
20 10 -6 1 12 0
20 16 -8 -10 18 0
20 16 -9 0
20 -4 13 0
20 5 -6 -17 0
20 -16 -9 10 0
20 -10 -17 0
20 -12 7 0
20 -14 -9 0
20 2 14 0
20 17 -8 -18 0
20 -2 -7 14 0
20 -16 -12 7 0
20 15 -6 0
20 -7 4 0
20 7 5 0
20 -5 -8 0
20 16 18 6 0
20 -5 -7 -13 17 0
20 17 11 3 0
20 -5 8 -3 -1 0
20 5 9 -14 18 0
20 7 -4 -9 0
20 4 -6 0
20 -12 -6 0
20 7 -5 10 0
20 -6 -16 -14 13 0
20 -1 11 -6 0
20 9 1 15 0
1 -4 13 0
1 -4 0
1 -2 18 0
1 4 0
1 -3 0
1 9 0
1 -16 0
1 -8 0
1 -15 0
1 6 0
1 -10 0
1 -1 0
1 -8 0
1 13 -3 0
1 5 -11 0
1 -8 -12 0
1 -1 0
1 7 10 0
1 11 -9 0
