p wcnf 16 56 21
21 -10 -15 -4 16 0
21 -14 5 6 0
21 -10 -7 0
21 -7 -5 -8 -16 0
21 -8 10 5 0
21 5 16 -1 0
21 -8 -7 5 12 0
21 -13 -1 15 -12 0
21 10 1 4 6 0
21 5 -7 -16 0
21 -1 -8 0
21 1 7 0
21 13 11 0
21 -1 -15 -5 0
21 -1 -12 0
21 -16 9 6 1 0
21 10 14 7 15 0
21 -8 3 2 5 0
21 7 -12 0
21 -2 -8 0
21 -3 6 0
21 6 4 15 0
21 -1 -4 0
21 4 -12 -3 1 0
21 -8 9 2 0
21 -7 -11 -14 -6 0
21 -2 4 -8 1 0
21 -15 -9 0
21 -13 5 8 0
21 2 -12 14 0
21 -10 6 0
21 7 8 -11 -13 0
21 -13 -4 6 0
21 4 8 15 0
21 -1 -2 -16 -4 0
21 14 -13 0
1 12 0
1 -1 0
1 -4 0
1 -3 0
1 10 0
1 7 1 0
1 14 0
1 -12 0
1 14 0
1 11 -12 0
1 -14 0
1 -3 0
1 -12 0
1 -7 0
1 -16 0
1 -9 0
1 4 0
1 4 0
1 -16 0
1 -16 0
