p wcnf 17 54 20
20 -11 15 0
20 -8 2 0
20 -10 4 0
20 -1 5 0
20 11 12 0
20 -3 5 14 0
20 17 11 -15 8 0
20 3 -1 17 0
20 4 3 -15 0
20 13 8 0
20 -14 -15 -10 13 0
20 13 -7 12 0
20 16 1 0
20 -14 13 9 11 0
20 -12 -3 -13 9 0
20 -11 -17 -7 -9 0
20 -6 -4 10 0
20 -6 -5 0
20 -8 -1 0
20 -4 -8 -3 -15 0
20 -15 6 -5 0
20 -6 12 0
20 -13 17 9 8 0
20 9 -5 0
20 -1 -17 -5 0
20 11 5 -2 0
20 4 -3 16 9 0
20 -1 10 -16 0
20 -2 -16 8 0
20 -10 4 5 13 0
20 -10 -17 12 -9 0
20 -7 4 16 1 0
20 2 -14 5 -9 0
20 -5 4 -13 0
20 15 5 17 0
1 16 0
1 8 0
1 14 15 0
1 -7 0
1 9 0
1 -4 0
1 4 0
1 -2 0
1 4 -9 0
1 16 0
1 10 0
1 9 -5 0
1 -13 0
1 -15 -1 0
1 15 8 0
1 11 0
1 3 0
1 -8 0
1 -5 -14 0
