p wcnf 18 55 15
15 14 3 12 10 0
15 3 -15 -16 -8 0
15 -10 7 0
15 -12 -7 -6 8 0
15 18 -2 0
15 -13 -1 3 0
15 -1 17 8 6 0
15 -6 -8 0
15 16 -11 -8 -10 0
15 13 6 -11 -2 0
15 -13 -17 -7 0
15 1 -10 0
15 -1 7 -15 0
15 -10 -16 0
15 -6 8 -2 4 0
15 -4 -6 -8 -9 0
15 -3 11 9 17 0
15 -8 -17 -10 16 0
15 4 9 7 3 0
15 -6 17 0
15 9 3 -2 0
15 -10 -8 -14 3 0
15 18 6 0
15 18 -5 0
15 6 14 -13 -11 0
15 7 -3 0
15 -12 -7 0
15 9 15 0
15 3 -7 0
15 11 18 13 0
15 15 -12 0
15 12 2 6 0
15 10 15 7 0
15 13 8 5 -4 0
15 -18 -13 11 0
15 14 -7 13 0
15 -18 10 -8 -3 0
15 11 6 -15 0
15 2 16 0
15 2 17 0
15 3 -4 0
1 -3 -16 0
1 -13 0
1 -7 0
1 1 0
1 7 0
1 -16 0
1 18 -14 0
1 4 0
1 2 0
1 -5 -15 0
1 15 0
1 -12 0
1 -16 0
1 -4 0
