p wcnf 18 72 21
21 12 3 0
21 13 -5 -14 12 0
21 6 -8 0
21 6 -8 -12 1 0
21 10 -3 -1 5 0
21 15 6 12 0
21 -18 16 2 0
21 5 -11 17 0
21 -12 -1 0
21 -8 -14 0
21 1 7 -4 -16 0
21 -17 13 0
21 -5 -13 -11 0
21 -9 -13 0
21 -18 -11 -8 0
21 -18 17 1 0
21 2 -4 6 0
21 -7 -1 -18 13 0
21 11 12 0
21 -16 11 -6 0
21 16 8 0
21 10 18 0
21 -9 1 4 0
21 -11 2 0
21 2 -3 8 0
21 6 5 0
21 -9 -14 0
21 9 12 -15 -17 0
21 4 -13 -17 7 0
21 2 1 9 -13 0
21 10 -8 -14 -4 0
21 -7 -5 0
21 12 -15 -18 1 0
21 -6 13 -12 8 0
21 2 9 0
21 18 15 -14 -8 0
21 -14 6 0
21 5 -3 15 0
21 8 10 -6 2 0
21 2 10 13 17 0
21 -17 16 0
21 5 -1 0
21 -5 -11 0
21 -9 -12 -18 0
21 1 -9 -17 0
21 -1 15 16 8 0
21 14 -16 -15 0
21 -3 12 8 4 0
21 -3 13 5 0
21 16 -11 0
21 12 14 0
21 -9 7 15 0
1 -18 0
1 1 0
1 6 -15 0
1 -10 0
1 16 -7 0
1 17 0
1 -16 0
1 8 0
1 7 0
1 -13 0
1 9 0
1 -10 0
1 -14 0
1 -18 0
1 11 0
1 -3 0
1 8 0
1 -17 0
1 -15 0
1 -6 0
