p wcnf 13 49 16
16 7 3 -4 0
16 -6 -10 3 0
16 3 1 12 -7 0
16 12 -4 5 0
16 -6 12 0
16 -4 13 0
16 -7 1 4 -8 0
16 -1 9 0
16 4 -10 9 0
16 4 10 2 -6 0
16 -10 9 -6 -13 0
16 4 1 6 0
16 -11 6 -1 5 0
16 3 -8 2 0
16 -3 1 5 10 0
16 -10 12 0
16 13 2 -6 0
16 -1 10 -13 9 0
16 8 -7 10 4 0
16 -12 -10 -3 8 0
16 12 13 6 0
16 -4 -10 0
16 -13 12 1 -2 0
16 -11 -7 -5 0
16 10 7 4 0
16 -6 12 11 0
16 -8 -11 -4 0
16 -9 13 -3 0
16 -12 -3 0
16 10 -4 11 0
16 7 8 4 0
16 13 -3 -5 11 0
16 7 -6 -11 0
16 12 -10 6 -9 0
1 -2 0
1 -6 7 0
1 9 2 0
1 -12 -4 0
1 -9 6 0
1 7 0
1 5 -3 0
1 -6 0
1 6 -9 0
1 1 0
1 -11 -4 0
1 -5 1 0
1 -13 0
1 -13 6 0
1 -5 0
