p wcnf 20 67 17
17 -4 -9 0
17 20 19 5 11 0
17 -11 -6 -14 0
17 -7 11 -4 -12 0
17 15 -6 -19 -11 0
17 6 -15 -14 3 0
17 -12 -8 2 3 0
17 -3 -1 0
17 10 18 0
17 18 -16 0
17 -1 -12 20 0
17 14 9 -5 -10 0
17 -15 -19 9 -4 0
17 4 -9 -1 0
17 -8 -18 0
17 -5 -14 -1 0
17 6 16 0
17 -4 13 0
17 1 -14 7 0
17 3 2 0
17 -19 10 0
17 -2 13 14 0
17 -9 19 7 10 0
17 19 -11 17 5 0
17 -3 -5 0
17 9 -19 -20 0
17 -1 11 0
17 -13 -16 0
17 10 -14 -3 0
17 12 -3 -16 -14 0
17 -3 8 0
17 -16 -12 0
17 -16 18 1 0
17 6 17 18 -19 0
17 18 -13 4 -10 0
17 19 5 7 -3 0
17 17 -14 -3 -7 0
17 -20 -2 0
17 -2 19 -7 -8 0
17 10 -14 0
17 -11 -2 9 0
17 1 15 0
17 -19 -14 6 0
17 -2 19 12 15 0
17 -6 10 0
17 17 -9 -12 14 0
17 3 12 0
17 -1 11 -16 20 0
17 -7 -1 0
17 -15 -17 0
17 -18 12 -1 -4 0
1 7 0
1 -14 -10 0
1 15 0
1 2 0
1 4 0
1 -20 0
1 13 14 0
1 -8 0
1 -15 -10 0
1 -19 -20 0
1 -12 0
1 -19 0
1 15 0
1 -5 0
1 -10 0
1 15 0
