p wcnf 13 55 21
21 -12 10 3 5 0
21 11 5 12 4 0
21 -4 8 0
21 -4 10 3 0
21 -1 11 4 -5 0
21 5 -12 0
21 6 -4 -11 0
21 -7 2 10 0
21 2 -3 0
21 6 9 -7 13 0
21 2 9 -12 -6 0
21 -9 -13 -5 7 0
21 2 13 -3 0
21 1 9 -12 0
21 2 -7 13 0
21 -1 -3 7 -13 0
21 8 1 0
21 5 -4 -3 0
21 5 9 0
21 5 4 9 0
21 -13 3 4 -9 0
21 13 2 5 0
21 12 -6 0
21 -4 -13 -11 7 0
21 -10 8 11 0
21 -11 12 0
21 9 12 -4 11 0
21 -8 9 3 0
21 6 -1 -3 0
21 -1 8 10 0
21 -1 9 7 -6 0
21 -8 -2 4 -9 0
21 -1 2 -8 0
21 11 -13 0
21 2 -8 -4 -7 0
1 -1 6 0
1 12 0
1 8 11 0
1 4 -9 0
1 -7 8 0
1 7 -1 0
1 3 0
1 -13 6 0
1 -9 1 0
1 11 0
1 -8 -4 0
1 -7 0
1 3 0
1 -8 0
1 -11 12 0
1 9 0
1 -9 0
1 -4 0
1 5 0
1 4 0
