p wcnf 16 57 14
14 -8 -13 9 -3 0
14 -3 16 0
14 14 -9 0
14 5 11 0
14 9 13 0
14 10 -7 8 -5 0
14 4 -14 -13 0
14 12 -6 -4 0
14 5 -8 -13 -7 0
14 1 16 13 0
14 -12 2 0
14 4 -13 -5 -8 0
14 2 5 6 0
14 10 -11 6 -5 0
14 -16 -7 0
14 9 -4 11 5 0
14 16 -8 -4 -7 0
14 8 -12 0
14 -11 9 3 0
14 7 5 -15 0
14 -7 2 0
14 5 13 2 0
14 -2 10 -7 -13 0
14 -9 -10 0
14 -10 3 -5 0
14 2 -11 -10 -13 0
14 1 -9 -10 0
14 -2 10 5 15 0
14 2 15 -13 0
14 9 1 -7 0
14 -14 12 0
14 -6 -8 10 5 0
14 -13 -14 4 0
14 -15 2 -4 5 0
14 -9 -4 6 0
14 -7 -5 -15 3 0
14 -8 12 13 0
14 12 4 9 -8 0
14 4 2 -3 0
14 3 -14 -5 -15 0
14 1 15 3 0
14 -6 10 0
14 9 -4 -8 14 0
14 2 -6 0
1 -16 0
1 4 0
1 13 2 0
1 -12 0
1 -16 0
1 6 0
1 9 0
1 -12 0
1 -9 0
1 13 -6 0
1 -1 -4 0
1 8 0
1 -1 -3 0
