p wcnf 14 49 14
14 -14 3 0
14 -2 -11 0
14 11 -8 3 0
14 9 13 -6 2 0
14 -3 12 -5 -6 0
14 -8 -3 7 0
14 7 1 -5 11 0
14 7 -10 -9 -5 0
14 -3 -4 12 0
14 6 12 -14 0
14 -4 -2 5 0
14 -1 -8 4 -14 0
14 -5 -10 -6 -3 0
14 -14 -1 13 -3 0
14 13 9 -10 0
14 5 -12 10 13 0
14 10 1 8 0
14 5 -8 0
14 5 -13 0
14 1 14 7 0
14 5 -3 -10 7 0
14 -6 -14 1 0
14 -7 14 0
14 -7 4 10 -2 0
14 5 -14 -13 -11 0
14 -13 -8 0
14 -12 10 0
14 4 2 7 0
14 -2 -3 0
14 -2 -7 8 1 0
14 13 5 8 1 0
14 -14 -2 0
14 -2 9 0
14 12 -10 -2 0
14 -10 -5 2 0
14 7 11 5 6 0
1 -11 0
1 2 -13 0
1 -13 0
1 -3 0
1 -8 -6 0
1 -8 0
1 -10 13 0
1 8 5 0
1 7 0
1 -4 8 0
1 -2 0
1 -10 0
1 12 0
