p wcnf 17 44 14
14 -4 8 0
14 -16 4 13 0
14 8 9 0
14 -2 12 6 0
14 -5 -14 6 11 0
14 11 -14 -13 -4 0
14 -16 8 3 -5 0
14 17 2 0
14 9 14 0
14 13 -4 0
14 5 -9 11 0
14 -6 -17 0
14 -9 -4 -10 0
14 -8 -17 -15 0
14 5 12 0
14 14 9 -13 1 0
14 -12 -15 -11 0
14 -4 -17 0
14 -6 -1 0
14 17 14 -15 0
14 -12 8 -9 -2 0
14 9 6 17 0
14 5 -16 -1 0
14 -14 13 10 0
14 -9 -16 0
14 14 -8 0
14 1 -8 11 0
14 7 -6 16 -14 0
14 -16 8 0
14 -11 15 6 13 0
14 -5 -9 -8 0
1 -16 -12 0
1 -9 -12 0
1 1 -8 0
1 7 -16 0
1 3 -1 0
1 -4 0
1 12 0
1 -5 17 0
1 -12 0
1 6 0
1 16 0
1 -12 -2 0
1 14 5 0
