p wcnf 14 48 14
14 9 3 0
14 6 14 0
14 -1 3 0
14 5 -4 0
14 1 -14 -2 0
14 -5 10 -1 0
14 -7 -8 11 10 0
14 11 14 4 0
14 -1 6 -2 0
14 4 8 -11 -1 0
14 -3 6 5 1 0
14 7 8 0
14 9 14 10 5 0
14 11 3 -9 14 0
14 -6 -12 -11 0
14 -10 -4 0
14 4 7 -13 0
14 -6 3 -5 7 0
14 -7 -4 0
14 -1 -10 0
14 3 4 -2 13 0
14 -10 -12 0
14 11 9 4 3 0
14 -10 -7 0
14 -12 -2 -11 -10 0
14 9 1 13 0
14 8 5 -12 6 0
14 -2 8 -14 1 0
14 3 12 -9 -2 0
14 -2 -7 10 0
14 5 11 14 4 0
14 -14 3 -4 -5 0
14 14 -9 0
14 9 -7 0
14 12 7 0
1 10 5 0
1 -3 0
1 2 0
1 10 0
1 -13 0
1 -9 8 0
1 5 3 0
1 -11 0
1 -2 0
1 8 4 0
1 -13 0
1 -12 1 0
1 -11 0
