p wcnf 13 50 21
21 -5 -9 -3 -11 0
21 -9 8 0
21 9 13 10 2 0
21 -5 2 -12 7 0
21 -1 13 -9 0
21 8 4 -13 0
21 -9 7 0
21 2 3 1 0
21 1 11 -6 3 0
21 -10 1 -13 0
21 13 -6 -11 0
21 -1 -4 -10 0
21 -1 8 -7 0
21 -3 2 0
21 13 -7 -9 5 0
21 -13 7 -1 0
21 8 11 -2 -13 0
21 1 13 0
21 -13 11 -4 0
21 2 -1 0
21 -2 -1 12 0
21 -8 -10 11 -1 0
21 -10 12 -7 -1 0
21 -3 -12 -6 4 0
21 13 2 0
21 4 10 0
21 -2 -11 -1 0
21 6 10 -13 12 0
21 1 -3 0
21 5 -3 -8 4 0
1 4 13 0
1 -1 0
1 -11 0
1 5 0
1 1 0
1 4 0
1 6 11 0
1 9 0
1 -2 -4 0
1 -1 9 0
1 -10 0
1 2 0
1 -13 -6 0
1 -4 0
1 4 10 0
1 11 0
1 -7 0
1 -12 6 0
1 -13 -11 0
1 -8 0
