p wcnf 13 48 20
20 4 2 7 1 0
20 -10 13 -4 0
20 -11 -5 0
20 -2 -12 -8 0
20 -11 8 0
20 -11 -10 -4 2 0
20 10 -4 -3 0
20 2 -8 11 0
20 4 3 5 -9 0
20 13 -9 -8 0
20 -10 -4 0
20 10 6 -3 0
20 1 9 0
20 9 -6 -8 3 0
20 9 -2 13 0
20 -7 -3 0
20 -11 4 -1 10 0
20 8 9 0
20 9 -5 -13 10 0
20 -4 -7 0
20 6 13 0
20 9 -2 10 -8 0
20 -1 3 0
20 -4 -7 0
20 -5 11 0
20 13 -10 0
20 9 -4 0
20 1 2 -3 0
20 -4 -12 13 8 0
1 3 0
1 9 10 0
1 -3 0
1 2 0
1 4 -8 0
1 2 0
1 10 0
1 10 2 0
1 -8 0
1 5 0
1 -10 0
1 2 0
1 -2 0
1 -2 0
1 -13 -6 0
1 -6 0
1 -10 -13 0
1 -1 0
1 13 -10 0
