p wcnf 12 51 20
20 6 -4 -12 -1 0
20 -6 10 12 4 0
20 11 -4 0
20 -2 8 12 0
20 -1 6 11 10 0
20 11 -5 -9 -8 0
20 -11 10 7 3 0
20 10 1 0
20 -11 4 9 0
20 -3 -10 0
20 4 -3 0
20 -2 -3 11 0
20 5 -12 0
20 -3 -4 6 -5 0
20 1 9 -12 -7 0
20 3 12 -6 -11 0
20 -3 -9 7 5 0
20 -5 2 0
20 -10 -5 0
20 -12 4 0
20 -10 1 -6 -7 0
20 4 8 0
20 -8 -4 0
20 6 10 5 0
20 -12 5 0
20 -10 -7 -6 0
20 7 -1 0
20 1 4 7 -12 0
20 -2 4 0
20 10 2 -5 0
20 2 10 -11 -9 0
20 -10 -4 -6 11 0
1 9 0
1 -11 5 0
1 -6 0
1 -8 0
1 -4 0
1 2 9 0
1 -4 0
1 -3 0
1 6 0
1 -9 -11 0
1 8 1 0
1 1 0
1 -12 3 0
1 8 0
1 -4 0
1 -10 0
1 -12 -1 0
1 1 0
1 5 -1 0
