p wcnf 16 50 17
17 -16 1 0
17 -10 -15 0
17 3 10 16 0
17 3 8 -4 0
17 4 -7 2 0
17 3 14 -12 0
17 13 14 0
17 3 -8 0
17 8 -7 11 12 0
17 -13 -15 12 0
17 16 3 0
17 1 14 -11 0
17 12 -7 10 0
17 2 -7 -1 -11 0
17 7 -2 3 0
17 15 2 -12 0
17 15 12 7 4 0
17 3 -10 15 0
17 10 4 1 2 0
17 -11 5 0
17 9 7 -15 -4 0
17 16 -2 0
17 13 3 5 -7 0
17 15 -10 0
17 13 14 -12 0
17 16 -12 6 1 0
17 -4 -1 8 0
17 13 11 1 12 0
17 -10 -8 -13 0
17 3 10 -4 0
17 3 10 0
17 -3 -15 0
17 -15 9 0
17 -3 -2 0
1 -13 0
1 6 0
1 -15 -3 0
1 1 -11 0
1 -11 0
1 7 0
1 15 -2 0
1 16 0
1 13 -1 0
1 7 0
1 -8 -7 0
1 10 -2 0
1 2 0
1 -5 0
1 -5 0
1 9 0
