p wcnf 18 39 16
16 -6 18 -7 -13 0
16 5 -14 -3 0
16 -5 -4 -14 2 0
16 -10 -1 -12 0
16 -5 11 -16 0
16 -15 -6 5 16 0
16 16 11 -7 0
16 15 -18 -11 0
16 8 -14 4 12 0
16 -1 7 14 4 0
16 -17 -10 -8 9 0
16 18 -7 -8 0
16 -5 10 0
16 -7 10 -4 15 0
16 14 12 6 0
16 -10 -13 3 6 0
16 -12 14 1 0
16 -18 17 5 0
16 -1 -16 -18 0
16 13 7 0
16 -11 -18 16 -15 0
16 8 12 0
16 -3 4 0
16 11 -4 -3 12 0
1 4 0
1 -18 15 0
1 7 0
1 -4 15 0
1 17 -5 0
1 -1 0
1 17 0
1 -4 0
1 4 -11 0
1 -2 0
1 12 1 0
1 -17 -8 0
1 -16 0
1 -10 2 0
1 -14 0
