p wcnf 18 70 18
18 8 2 0
18 1 -13 6 0
18 17 -15 -7 -11 0
18 15 -5 -7 8 0
18 4 14 16 0
18 -14 12 -6 5 0
18 -14 -17 0
18 -3 -10 12 0
18 -18 16 -2 0
18 17 1 0
18 -15 11 0
18 -2 9 -12 0
18 16 18 -12 -17 0
18 5 6 -15 -11 0
18 -3 4 -6 0
18 -15 -6 0
18 14 -16 0
18 -3 5 -7 0
18 4 1 0
18 1 13 9 0
18 4 -8 9 -6 0
18 -12 2 0
18 -12 -7 -14 0
18 -5 -13 0
18 -17 16 -11 -4 0
18 8 -14 -17 0
18 -3 11 -10 0
18 3 -12 0
18 -10 -16 -15 0
18 -16 1 -17 0
18 -5 3 0
18 -8 2 5 0
18 -6 10 7 0
18 -8 10 0
18 -7 5 15 -9 0
18 -3 2 -17 7 0
18 -3 -2 14 16 0
18 -5 -16 0
18 -8 18 16 0
18 4 -14 12 0
18 -16 -1 13 -4 0
18 -16 8 -12 0
18 -18 13 7 0
18 -5 -13 2 0
18 -9 -11 0
18 2 -9 16 -4 0
18 16 -15 -8 14 0
18 -17 7 5 -4 0
18 -13 -6 0
18 -6 18 -3 -14 0
18 -18 13 16 -1 0
18 17 10 18 15 0
18 -17 -12 0
1 -17 7 0
1 -7 -11 0
1 17 0
1 -6 0
1 3 -2 0
1 10 14 0
1 1 17 0
1 12 0
1 -6 0
1 -5 0
1 14 0
1 -6 0
1 -16 -11 0
1 7 0
1 11 -18 0
1 -5 0
1 13 0
