p wcnf 16 42 15
15 -14 -16 -4 0
15 -4 2 0
15 -10 -2 -15 14 0
15 12 11 -9 -15 0
15 -3 13 15 -14 0
15 -12 7 9 3 0
15 7 -10 -1 0
15 -2 13 0
15 4 -3 12 -9 0
15 16 -6 15 9 0
15 11 -5 2 -9 0
15 -16 -10 0
15 -1 -6 0
15 12 -13 -4 0
15 -13 1 -9 -15 0
15 1 -13 0
15 16 11 6 1 0
15 -10 -6 0
15 16 9 13 0
15 15 12 0
15 -16 -5 -11 13 0
15 1 -16 0
15 9 -14 -12 7 0
15 -15 10 0
15 -14 10 5 0
15 -10 6 1 -7 0
15 -11 -12 -6 -7 0
15 7 11 0
1 3 8 0
1 7 0
1 -10 0
1 -9 4 0
1 9 0
1 2 0
1 -3 0
1 6 0
1 -16 0
1 -1 0
1 14 0
1 -8 0
1 -14 -7 0
1 -9 0
