p wcnf 20 56 20
20 16 6 0
20 2 14 0
20 -10 16 0
20 -15 -20 9 0
20 17 -4 -19 10 0
20 7 16 0
20 7 -17 0
20 3 -8 14 0
20 20 -6 0
20 17 -18 4 0
20 -6 5 0
20 16 -9 -3 18 0
20 -9 3 -18 -6 0
20 -2 19 -13 -6 0
20 -20 -4 0
20 4 -20 -5 0
20 -7 -14 0
20 18 -19 -5 0
20 9 14 -15 0
20 3 7 14 0
20 20 3 -18 -6 0
20 -7 16 0
20 -17 -7 -6 0
20 -17 1 -9 0
20 -1 14 20 -6 0
20 -19 -16 9 0
20 -6 2 0
20 -6 7 0
20 4 20 -11 0
20 7 -14 -17 0
20 -19 -6 0
20 -20 9 0
20 -3 -10 20 -6 0
20 14 13 2 0
20 13 18 -15 0
20 -3 -4 11 0
20 7 -15 12 0
1 10 0
1 15 4 0
1 5 0
1 -1 0
1 -3 12 0
1 -10 0
1 -19 0
1 -6 0
1 4 0
1 7 2 0
1 -19 8 0
1 -4 0
1 17 0
1 15 0
1 19 0
1 -12 0
1 2 0
1 11 0
1 -16 -13 0
