p wcnf 19 71 19
19 -3 -5 -8 4 0
19 8 -5 16 18 0
19 5 14 6 0
19 -15 7 0
19 1 -17 -9 12 0
19 9 -11 0
19 -10 17 0
19 -19 10 -15 13 0
19 14 17 -16 0
19 10 3 9 -16 0
19 -3 16 -1 -4 0
19 -15 -9 0
19 14 -17 0
19 18 -4 0
19 3 13 12 15 0
19 6 -13 -8 0
19 9 13 10 -18 0
19 -14 11 6 15 0
19 17 13 -11 -18 0
19 9 -12 -17 18 0
19 4 8 0
19 -5 1 -11 -14 0
19 -17 12 -15 0
19 -18 -19 0
19 4 -9 0
19 -8 -15 0
19 -14 -18 -15 0
19 -15 -13 2 -3 0
19 -7 -10 17 -13 0
19 -8 -19 0
19 16 -10 0
19 -12 -19 -9 -14 0
19 3 -1 8 0
19 2 -10 -17 0
19 -3 -5 0
19 1 3 -6 -12 0
19 14 -1 0
19 4 -12 -14 -8 0
19 19 -12 0
19 7 15 -9 0
19 -16 -17 19 0
19 -13 -2 11 -1 0
19 -4 -18 11 0
19 -15 18 2 0
19 -16 -18 2 0
19 12 -1 -15 0
19 -4 11 -10 -2 0
19 -12 -8 -18 19 0
19 11 19 5 -18 0
19 -11 6 16 0
19 -13 14 0
19 -17 -9 14 -11 0
19 -2 7 8 0
1 17 0
1 19 0
1 -4 7 0
1 15 -7 0
1 -3 0
1 1 0
1 19 0
1 9 -12 0
1 -8 0
1 -13 9 0
1 -8 0
1 3 16 0
1 11 0
1 6 0
1 -11 6 0
1 -9 0
1 -19 0
1 -16 -11 0
