p wcnf 19 49 14
14 9 10 0
14 2 -19 1 15 0
14 -19 7 10 -2 0
14 -8 9 0
14 6 -11 19 10 0
14 5 -14 -1 0
14 10 18 8 0
14 -18 2 -17 16 0
14 -9 1 0
14 1 2 -10 0
14 -2 13 0
14 6 8 0
14 11 17 18 0
14 18 1 -8 0
14 -7 -12 3 9 0
14 -6 -17 -18 0
14 -10 15 -17 -13 0
14 18 15 5 0
14 6 9 -17 0
14 -15 17 10 18 0
14 19 18 10 0
14 14 -10 0
14 -3 16 0
14 -12 11 13 0
14 3 10 0
14 -2 8 4 0
14 7 18 0
14 2 -6 13 7 0
14 1 10 0
14 -14 15 5 0
14 12 10 -5 0
14 10 -6 14 18 0
14 5 -2 0
14 16 6 -19 15 0
14 -14 -12 7 -11 0
14 -5 -17 14 0
1 -15 0
1 -13 2 0
1 -18 8 0
1 7 16 0
1 -10 0
1 -7 -2 0
1 11 0
1 -16 0
1 -8 14 0
1 -10 -18 0
1 18 0
1 13 -1 0
1 10 0
