p wcnf 16 40 10
10 -13 -16 -6 1 0
10 8 -5 7 -1 0
10 -11 -10 6 5 0
10 14 -5 -3 8 0
10 2 16 0
10 3 9 -6 -7 0
10 -1 -11 7 8 0
10 -14 -2 13 0
10 9 15 12 6 0
10 -16 13 0
10 6 -13 11 3 0
10 -4 15 -5 0
10 3 14 -6 0
10 -12 7 -1 6 0
10 -9 -10 -7 4 0
10 -1 -10 0
10 8 5 9 -16 0
10 -6 -13 -2 0
10 14 -8 -16 3 0
10 -11 -5 0
10 16 12 0
10 7 -12 0
10 6 -8 0
10 -10 -8 -6 -13 0
10 -6 8 0
10 -6 -13 -12 0
10 6 -4 -3 0
10 -6 -3 0
10 -15 7 0
10 -2 -10 -5 -14 0
10 -3 -1 16 9 0
1 -6 0
1 -12 8 0
1 5 0
1 6 -11 0
1 -11 0
1 4 0
1 -1 0
1 9 0
1 -5 0
