p wcnf 17 63 13
13 -4 16 0
13 13 -11 -5 0
13 12 -2 0
13 7 -3 0
13 -11 14 -10 0
13 -8 2 -10 0
13 17 -9 -3 0
13 -13 -5 -7 0
13 11 7 6 -5 0
13 -6 -10 12 15 0
13 -2 9 -11 -7 0
13 -11 9 -6 0
13 7 -16 2 0
13 -9 -7 -8 0
13 1 -10 -6 0
13 2 6 0
13 15 17 4 0
13 -2 17 0
13 -16 -14 -13 0
13 7 -13 -8 0
13 -13 5 17 0
13 -3 13 6 0
13 -2 -17 0
13 3 8 -17 0
13 -3 7 0
13 4 13 1 0
13 -4 -2 -5 12 0
13 -12 -2 0
13 -13 -17 7 -5 0
13 13 6 3 0
13 -13 14 -2 0
13 -7 11 0
13 -13 -11 7 0
13 -15 8 12 0
13 -13 12 17 -9 0
13 -17 13 16 -15 0
13 16 9 15 0
13 -15 -1 8 0
13 9 14 13 17 0
13 -10 4 -14 -17 0
13 15 5 0
13 15 -9 14 -2 0
13 -13 -7 0
13 15 9 -16 0
13 9 -6 12 0
13 3 -14 -6 0
13 -12 8 5 14 0
13 7 17 0
13 17 15 4 -2 0
13 -1 -6 -10 2 0
13 13 12 10 0
1 -5 0
1 -10 13 0
1 -5 0
1 17 -15 0
1 -2 0
1 -1 7 0
1 4 0
1 3 0
1 -4 0
1 6 0
1 -9 0
1 -8 0
