p wcnf 12 47 18
18 -10 -9 4 3 0
18 2 6 4 8 0
18 -11 -3 8 0
18 -8 7 -11 0
18 -4 10 0
18 2 -1 5 0
18 11 10 7 -9 0
18 3 -2 -9 -7 0
18 -6 7 0
18 5 12 -10 0
18 6 -2 0
18 -9 1 0
18 -2 6 0
18 1 12 10 0
18 -9 2 -11 0
18 10 -3 0
18 -10 6 8 -2 0
18 -2 10 0
18 6 -8 5 0
18 -11 -12 4 2 0
18 -1 5 0
18 11 -7 3 0
18 -10 12 -11 0
18 -3 10 -5 0
18 4 8 6 5 0
18 -11 -4 9 0
18 -6 -1 5 0
18 9 -5 8 1 0
18 -8 6 3 0
18 2 10 0
1 7 0
1 -7 5 0
1 -7 -11 0
1 -7 0
1 10 0
1 9 0
1 -11 5 0
1 -6 0
1 -10 4 0
1 4 0
1 -2 -11 0
1 11 0
1 -5 0
1 8 6 0
1 12 4 0
1 7 0
1 -3 0
