p wcnf 20 68 13
13 -17 16 0
13 16 -14 19 0
13 7 -13 -4 5 0
13 20 7 0
13 -6 1 8 0
13 11 5 8 0
13 11 15 -3 0
13 18 2 -3 0
13 13 -6 -18 0
13 16 7 -3 15 0
13 1 -4 10 0
13 -7 -15 16 0
13 4 3 0
13 -6 9 17 14 0
13 -2 -4 0
13 16 -14 0
13 3 -19 0
13 7 -4 3 -16 0
13 -4 -11 0
13 -3 10 0
13 8 2 19 15 0
13 -9 -15 -3 0
13 17 -7 6 0
13 -9 7 0
13 6 11 7 0
13 -11 -9 -17 0
13 2 -7 10 0
13 -14 7 0
13 -2 9 19 -6 0
13 7 5 0
13 3 -10 15 13 0
13 -19 4 14 12 0
13 20 7 -4 0
13 -17 4 -8 0
13 14 12 0
13 5 -10 -2 0
13 11 12 -10 20 0
13 10 16 0
13 18 14 -15 0
13 -1 10 11 17 0
13 1 -11 0
13 9 -3 -6 0
13 -11 4 -1 19 0
13 -12 13 -3 0
13 20 -2 0
13 16 12 3 15 0
13 1 6 0
13 -17 6 0
13 5 -14 -13 0
13 6 5 0
13 -12 10 -4 0
13 19 -5 0
13 10 7 17 12 0
13 -13 -20 0
13 20 17 -14 0
13 -10 -3 -4 2 0
1 -5 0
1 11 0
1 4 0
1 -17 0
1 2 0
1 10 -16 0
1 -2 0
1 1 -10 0
1 6 0
1 -4 0
1 14 0
1 12 9 0
