p wcnf 19 45 17
17 -10 -16 6 0
17 -4 11 13 18 0
17 19 4 11 0
17 -10 16 4 0
17 11 16 5 -17 0
17 17 2 -6 11 0
17 -16 -15 0
17 -15 2 -18 0
17 18 -8 10 0
17 4 2 14 0
17 4 -9 0
17 8 -3 0
17 10 15 -3 -16 0
17 -19 13 1 0
17 -15 10 -14 0
17 13 8 0
17 -3 19 15 0
17 19 -4 -1 0
17 2 8 -13 14 0
17 -17 7 0
17 -5 14 7 -10 0
17 15 -17 -16 -5 0
17 -19 13 0
17 -11 -9 0
17 12 15 11 9 0
17 14 -19 -16 3 0
17 5 -11 -8 0
17 -7 1 12 0
17 3 6 0
1 6 11 0
1 -15 -17 0
1 3 0
1 -2 -10 0
1 5 -4 0
1 -18 0
1 14 0
1 -12 0
1 17 -7 0
1 14 0
1 -13 -19 0
1 11 0
1 15 9 0
1 12 0
1 -10 0
1 -11 0
