p wcnf 11 45 16
16 11 -9 0
16 -6 2 -4 0
16 -1 7 8 -9 0
16 -5 7 2 0
16 -2 1 0
16 10 6 7 8 0
16 -11 -10 -5 -9 0
16 -9 -8 -4 0
16 -4 10 0
16 7 11 0
16 -10 1 5 0
16 -2 -8 5 11 0
16 -7 -1 0
16 -9 8 10 -1 0
16 5 -11 0
16 3 -7 -11 -8 0
16 -9 -11 2 0
16 -11 -5 -9 -7 0
16 10 -6 -9 3 0
16 6 -5 0
16 9 4 3 -8 0
16 -9 -11 6 0
16 11 -7 0
16 5 -3 0
16 -9 -1 -8 0
16 -2 -7 9 0
16 7 8 0
16 -1 6 0
16 -7 2 -10 0
16 10 -8 -3 -5 0
1 6 -7 0
1 7 0
1 -3 -10 0
1 5 -2 0
1 2 6 0
1 4 0
1 8 0
1 7 0
1 -5 6 0
1 6 -2 0
1 1 7 0
1 1 0
1 -1 -5 0
1 -4 0
1 4 0
