p wcnf 11 52 20
20 7 3 0
20 9 -4 0
20 -11 1 -3 5 0
20 -10 -4 2 0
20 2 1 -3 8 0
20 5 -3 0
20 9 -8 0
20 -8 10 -6 -3 0
20 3 8 5 0
20 5 7 9 -6 0
20 -8 6 -3 1 0
20 -1 -7 9 0
20 -11 -10 -5 4 0
20 7 6 -10 0
20 11 6 -8 5 0
20 4 7 0
20 11 -4 -6 -9 0
20 5 -2 0
20 -2 6 -7 5 0
20 3 4 -11 -8 0
20 1 9 -7 5 0
20 -10 1 -2 0
20 2 -1 -6 5 0
20 5 1 0
20 10 -11 0
20 -6 11 3 -4 0
20 -3 10 5 0
20 -6 -1 4 -11 0
20 7 -9 0
20 -9 3 6 0
20 10 6 1 0
20 -2 4 7 0
20 -7 9 8 4 0
1 -11 0
1 9 -2 0
1 -11 0
1 11 9 0
1 1 -10 0
1 -6 0
1 -10 0
1 2 0
1 -1 4 0
1 6 0
1 1 0
1 -5 -6 0
1 -9 0
1 7 0
1 -8 0
1 6 0
1 2 0
1 6 0
1 -7 10 0
