p wcnf 17 45 21
21 10 2 -15 0
21 3 4 8 0
21 -12 -5 0
21 -14 -9 -4 7 0
21 -10 -2 -5 0
21 -1 -17 2 -10 0
21 -16 -14 17 3 0
21 -16 -15 -5 -2 0
21 10 4 2 7 0
21 13 -14 6 -9 0
21 5 8 11 9 0
21 -10 2 0
21 -17 6 0
21 -5 6 0
21 -11 6 1 0
21 2 -3 11 13 0
21 13 -7 -16 -6 0
21 -17 -7 6 8 0
21 11 -2 0
21 -11 -3 9 0
21 17 -14 0
21 12 -15 0
21 3 -5 -11 -1 0
21 15 -5 0
21 -1 9 -10 0
1 -5 6 0
1 12 0
1 6 -3 0
1 -11 0
1 10 -5 0
1 8 6 0
1 -3 12 0
1 -1 0
1 4 0
1 -8 9 0
1 -3 17 0
1 7 3 0
1 7 0
1 -10 0
1 -3 9 0
1 -9 0
1 -10 0
1 -15 6 0
1 -10 0
1 -11 17 0
