p wcnf 20 78 19
19 11 -19 -12 0
19 15 -1 18 -17 0
19 -12 -19 -6 0
19 -1 -3 19 -11 0
19 2 12 1 -4 0
19 3 -6 0
19 1 19 0
19 15 8 19 0
19 -15 -2 12 0
19 -15 -10 -3 0
19 5 -14 -2 -19 0
19 -4 -12 2 -13 0
19 9 14 0
19 -19 -10 -11 20 0
19 1 4 -19 0
19 -9 -14 -15 12 0
19 -15 5 14 -12 0
19 -10 -18 -9 0
19 13 16 3 0
19 -7 -6 4 -19 0
19 3 16 -13 7 0
19 -20 10 -2 0
19 -11 -10 -12 9 0
19 -17 -10 14 0
19 12 10 0
19 9 -16 0
19 13 -1 -2 0
19 -16 -20 -14 3 0
19 1 -15 0
19 6 2 12 11 0
19 11 -1 -19 7 0
19 10 -17 -3 -7 0
19 -15 8 0
19 12 -2 -4 20 0
19 8 -6 7 14 0
19 -18 -11 0
19 15 -9 -13 0
19 13 16 0
19 18 -10 0
19 20 -11 0
19 -4 -5 -14 0
19 4 -15 18 3 0
19 -11 7 14 0
19 6 -12 -16 7 0
19 -20 7 5 8 0
19 2 -14 8 1 0
19 2 -9 -18 0
19 6 -7 18 0
19 13 -3 0
19 14 11 0
19 5 1 0
19 -13 -6 19 0
19 1 -4 -3 -8 0
19 18 15 -3 -1 0
19 -13 -2 -15 0
19 -20 -12 15 0
19 -11 -13 14 -3 0
19 -20 -11 -6 0
19 -10 -5 9 0
19 11 -3 -20 -13 0
1 5 0
1 -5 -11 0
1 -10 0
1 -10 0
1 -3 -16 0
1 13 0
1 10 0
1 16 -13 0
1 3 11 0
1 4 0
1 -18 0
1 7 0
1 9 0
1 4 0
1 -18 0
1 -3 -12 0
1 17 0
1 12 0
