p wcnf 13 50 13
13 -7 -1 11 0
13 -12 2 0
13 -12 13 -7 -4 0
13 10 11 9 0
13 1 -8 -9 0
13 -6 -8 12 0
13 -9 13 -1 0
13 -10 -5 -13 0
13 -13 2 0
13 4 -6 0
13 1 9 13 0
13 -10 9 7 2 0
13 1 2 8 4 0
13 -13 7 -10 -8 0
13 12 -11 0
13 -9 -5 -6 0
13 -2 3 -13 -6 0
13 12 -4 13 0
13 -5 3 0
13 12 8 -11 0
13 -8 -2 6 9 0
13 -8 1 7 4 0
13 9 -11 0
13 11 -6 8 -4 0
13 -6 12 0
13 8 -10 -13 0
13 8 -3 0
13 -9 -11 -6 0
13 -8 -11 4 -9 0
13 2 4 0
13 -10 -13 8 0
13 3 4 5 8 0
13 -1 13 11 0
13 4 -13 0
13 2 -8 3 0
13 2 -10 0
13 1 -8 11 0
13 -11 -13 3 9 0
1 7 0
1 -12 -7 0
1 5 10 0
1 7 0
1 10 2 0
1 12 0
1 7 0
1 -7 5 0
1 5 0
1 1 0
1 -9 0
1 8 -3 0
