p wcnf 20 49 9
9 -20 -13 -12 0
9 20 -16 1 0
9 -20 2 0
9 -16 -5 6 0
9 -8 14 -4 0
9 -17 2 -9 0
9 4 3 17 0
9 9 17 0
9 -3 -1 10 5 0
9 -17 10 7 0
9 -6 2 0
9 13 4 -18 0
9 17 -18 5 0
9 15 -4 0
9 9 16 -14 -6 0
9 3 -16 19 7 0
9 13 15 0
9 -3 15 0
9 -1 -17 -19 -16 0
9 -12 6 0
9 3 4 19 0
9 11 1 -6 0
9 19 -4 2 -16 0
9 2 12 -10 -8 0
9 20 18 0
9 6 17 0
9 -10 15 0
9 11 -18 6 9 0
9 1 -14 0
9 -6 -10 12 0
9 -4 8 0
9 -2 -19 -16 0
9 6 -1 17 7 0
9 10 -3 0
9 8 -9 0
9 17 10 -1 0
9 5 -1 0
9 -10 -1 -20 0
9 -14 -16 -6 -12 0
9 -3 -17 8 0
9 2 11 0
1 -7 -9 0
1 -17 0
1 -19 0
1 -14 0
1 9 -8 0
1 7 0
1 5 0
1 1 0
