p wcnf 17 57 15
15 -6 11 10 0
15 -13 1 0
15 -15 8 -13 0
15 -13 12 3 0
15 -13 -11 0
15 11 -9 15 3 0
15 14 -5 -12 0
15 -4 -2 16 8 0
15 -9 -1 5 -3 0
15 13 16 12 -8 0
15 17 -7 0
15 -16 8 15 0
15 15 16 -6 0
15 -12 -2 -13 4 0
15 6 11 0
15 -8 5 13 11 0
15 3 10 11 17 0
15 8 -4 11 0
15 -12 14 4 0
15 5 -3 -4 15 0
15 16 8 17 -15 0
15 13 4 -1 -8 0
15 -15 -16 0
15 16 17 14 0
15 1 -7 14 0
15 -13 -3 7 9 0
15 -12 13 9 4 0
15 -11 -3 -13 0
15 -6 12 0
15 -10 4 -16 0
15 -12 -9 -1 -5 0
15 -16 2 -9 0
15 -14 1 0
15 9 12 2 0
15 16 -11 -3 0
15 -7 -9 0
15 -3 -17 -15 0
15 -12 7 0
15 16 -6 0
15 11 -6 0
15 -13 3 -6 -8 0
15 -6 3 0
15 -1 3 0
1 16 -2 0
1 15 16 0
1 14 0
1 -17 1 0
1 -7 -5 0
1 15 0
1 4 0
1 -3 0
1 17 -11 0
1 -5 0
1 -15 0
1 -2 0
1 16 0
1 -14 0
