p wcnf 18 54 17
17 6 12 18 2 0
17 -18 -15 -3 1 0
17 18 7 -11 0
17 -14 18 -15 -9 0
17 -12 -17 0
17 -9 -17 0
17 -12 3 16 -10 0
17 -6 14 -10 0
17 13 -18 6 -17 0
17 14 -5 0
17 -16 -14 1 6 0
17 8 -14 7 2 0
17 12 10 5 0
17 -17 16 0
17 12 17 -6 0
17 13 10 15 -14 0
17 11 -14 0
17 -8 1 0
17 3 4 0
17 9 5 1 -14 0
17 -4 11 18 0
17 15 -2 0
17 15 2 0
17 -18 10 13 -5 0
17 -4 7 0
17 9 3 0
17 -8 -7 0
17 -5 11 2 -14 0
17 -13 -15 -7 0
17 -4 -7 3 0
17 12 -14 13 -7 0
17 -7 13 -6 -10 0
17 7 10 0
17 -10 -11 -2 -1 0
17 10 8 2 0
17 -9 8 0
17 -5 -2 -7 0
17 -13 -12 6 0
1 -12 0
1 -12 0
1 13 0
1 1 -12 0
1 11 0
1 7 0
1 -8 0
1 13 0
1 -10 0
1 16 0
1 -18 0
1 -4 -14 0
1 -16 12 0
1 -10 0
1 -16 4 0
1 -3 0
