p wcnf 20 58 13
13 -2 16 15 0
13 5 -3 0
13 20 6 -8 11 0
13 -12 14 0
13 11 -10 7 17 0
13 -6 17 0
13 8 -7 0
13 19 12 -16 3 0
13 19 6 -15 18 0
13 -16 7 -15 0
13 -14 -4 -17 -6 0
13 10 -5 0
13 10 9 3 0
13 13 -12 -17 0
13 4 3 13 9 0
13 -2 1 0
13 -6 9 11 0
13 -15 -2 0
13 15 1 0
13 20 15 0
13 -12 -11 -6 0
13 18 10 -4 0
13 13 -18 0
13 -7 -20 10 0
13 -5 2 18 0
13 13 2 -17 0
13 11 -13 0
13 -20 -15 0
13 16 -18 -3 12 0
13 16 19 0
13 11 13 3 0
13 -6 -5 0
13 -1 16 0
13 -19 9 11 0
13 -3 -14 9 -1 0
13 13 -16 -10 -2 0
13 -6 14 -12 0
13 7 11 -6 3 0
13 14 5 0
13 -15 -19 8 3 0
13 15 -7 12 -13 0
13 -10 3 2 1 0
13 -8 -6 0
13 -5 -1 0
13 -11 -2 14 0
13 17 -1 0
1 -11 0
1 -18 0
1 15 8 0
1 -2 0
1 -12 0
1 5 0
1 11 0
1 -18 0
1 4 -20 0
1 -10 0
1 2 5 0
1 8 0
