p wcnf 13 44 13
13 -2 -11 -12 0
13 7 -12 10 -5 0
13 -7 -6 12 8 0
13 -1 -11 5 -9 0
13 -7 -13 0
13 6 1 5 0
13 10 -11 0
13 -2 -12 -4 0
13 -6 4 -12 -5 0
13 8 -3 2 0
13 -1 -3 12 -10 0
13 -10 2 -8 0
13 6 5 1 -13 0
13 -4 12 -13 0
13 -4 6 0
13 -8 3 0
13 11 2 -12 13 0
13 4 12 9 0
13 -6 -2 0
13 13 1 0
13 -3 -5 -6 0
13 12 -4 -6 -3 0
13 -12 6 -11 0
13 3 -12 5 0
13 13 -9 0
13 10 3 0
13 8 6 7 0
13 13 -12 3 -11 0
13 13 5 3 7 0
13 -8 5 -1 -7 0
13 2 -10 -7 0
13 -4 -1 -7 0
1 -8 -2 0
1 11 -4 0
1 -8 -3 0
1 6 0
1 -1 7 0
1 -10 -11 0
1 4 0
1 -2 0
1 1 0
1 11 0
1 -7 0
1 -4 0
