p wcnf 17 51 20
20 -1 10 13 11 0
20 10 17 0
20 10 -9 5 0
20 -8 6 5 0
20 -11 -4 14 0
20 5 10 0
20 -5 12 10 0
20 2 9 10 -3 0
20 -15 -2 0
20 -17 11 -9 -4 0
20 -2 17 -9 -11 0
20 -12 17 0
20 -7 16 0
20 4 -17 -16 -9 0
20 5 7 0
20 -3 -7 -10 16 0
20 -8 14 5 -17 0
20 -11 1 17 -16 0
20 1 -14 -13 0
20 17 -7 3 0
20 7 -1 -10 0
20 -8 12 0
20 12 15 0
20 -10 17 -16 4 0
20 -13 15 9 -8 0
20 -9 2 17 0
20 2 -3 0
20 9 -14 0
20 4 -15 0
20 -14 4 0
20 -13 -10 0
20 16 13 0
1 -12 0
1 -5 -13 0
1 12 0
1 -17 0
1 6 0
1 15 0
1 4 0
1 -4 0
1 -1 17 0
1 -4 0
1 17 -7 0
1 -6 2 0
1 13 -1 0
1 4 0
1 2 0
1 -3 -15 0
1 -9 8 0
1 -15 0
1 14 -9 0
