p wcnf 17 55 8
8 15 5 0
8 2 -3 4 0
8 -7 17 -10 0
8 -14 7 4 0
8 3 -1 11 0
8 17 -16 4 1 0
8 3 16 5 -14 0
8 -2 -7 -10 0
8 -15 -3 0
8 -9 16 -7 0
8 -8 -5 7 0
8 -12 -9 -11 0
8 -1 -9 -17 -16 0
8 4 -7 -16 5 0
8 10 -14 8 0
8 -17 -15 7 0
8 -2 13 12 0
8 12 11 0
8 -7 16 0
8 -8 9 0
8 -6 16 -7 15 0
8 16 -10 2 0
8 17 -10 6 0
8 -4 9 0
8 11 -17 -9 0
8 -9 5 -12 0
8 11 17 0
8 4 5 7 0
8 13 12 0
8 -8 -4 7 0
8 -15 -4 0
8 -7 -14 2 0
8 5 2 -11 0
8 2 9 17 -7 0
8 3 7 0
8 17 -2 -13 0
8 -6 -14 -15 -16 0
8 -5 -13 2 -6 0
8 -2 3 8 -4 0
8 -16 -17 -11 0
8 1 4 0
8 11 6 -14 13 0
8 5 -10 11 0
8 -1 12 -16 0
8 -10 -8 0
8 4 10 5 16 0
8 8 7 0
8 -16 -9 4 0
1 13 -10 0
1 6 0
1 17 0
1 -1 6 0
1 -6 0
1 -3 0
1 1 0
