p wcnf 17 48 12
12 -9 -1 11 0
12 -2 11 0
12 6 7 3 -1 0
12 -16 -11 -17 0
12 14 -10 -5 6 0
12 -7 2 0
12 16 6 14 0
12 -6 14 0
12 14 -4 -17 0
12 -7 16 -12 0
12 -3 -8 0
12 -9 7 -4 0
12 -10 -2 17 0
12 -7 9 8 0
12 7 13 6 0
12 -4 -14 0
12 -6 13 4 0
12 7 -15 0
12 -4 -11 -17 0
12 -12 -2 0
12 15 -11 0
12 -13 -2 0
12 4 -1 14 15 0
12 -9 17 2 4 0
12 -6 8 0
12 -13 -6 -7 9 0
12 -1 5 -7 8 0
12 15 -10 -4 0
12 17 11 -9 0
12 17 4 -3 -13 0
12 10 -1 0
12 -6 -4 15 -5 0
12 -16 -6 17 0
12 7 6 4 -13 0
12 10 6 12 -8 0
12 2 -16 9 -5 0
12 -7 -11 0
1 -15 0
1 -8 0
1 2 -1 0
1 10 0
1 14 -17 0
1 13 3 0
1 -11 15 0
1 7 -5 0
1 8 0
1 -10 0
1 -9 0
