p wcnf 1130 3098 296
1 -217 0
1 -218 0
1 -219 0
1 -220 0
1 -221 0
1 -222 0
1 -223 0
1 -224 0
1 -225 0
1 -226 0
1 -227 0
1 -228 0
1 -229 0
1 -230 0
1 -231 0
1 -232 0
1 -233 0
1 -234 0
1 -235 0
1 -236 0
1 -237 0
1 -238 0
1 -239 0
1 -240 0
1 -241 0
1 -242 0
1 -243 0
1 -244 0
1 -245 0
1 -246 0
1 -247 0
1 -248 0
1 -249 0
1 -250 0
1 -251 0
1 -252 0
1 -253 0
1 -254 0
1 -255 0
1 -256 0
1 -257 0
1 -258 0
1 -259 0
1 -260 0
1 -261 0
1 -262 0
1 -263 0
1 -264 0
1 -265 0
1 -266 0
1 -267 0
1 -268 0
1 -269 0
1 -270 0
1 -271 0
1 -272 0
1 -273 0
1 -274 0
1 -275 0
1 -276 0
1 -277 0
1 -278 0
1 -279 0
1 -280 0
1 -281 0
1 -282 0
1 -283 0
1 -284 0
1 -285 0
1 -286 0
1 -287 0
1 -288 0
1 -289 0
1 -290 0
1 -291 0
1 -292 0
1 -293 0
1 -294 0
1 -295 0
1 -296 0
1 -297 0
1 -298 0
1 -299 0
1 -300 0
1 -301 0
1 -302 0
1 -303 0
1 -304 0
1 -305 0
1 -306 0
1 -307 0
1 -308 0
1 -309 0
1 -310 0
1 -311 0
1 -312 0
1 -313 0
1 -314 0
1 -315 0
1 -316 0
1 -317 0
1 -318 0
1 -319 0
1 -320 0
1 -321 0
1 -322 0
1 -323 0
1 -324 0
296 -164 -342 -343 0
296 164 342 -343 0
296 -164 342 343 0
296 164 -342 343 0
296 -165 -347 -348 0
296 165 347 -348 0
296 -165 347 348 0
296 165 -347 348 0
296 -166 -352 -353 0
296 166 352 -353 0
296 -166 352 353 0
296 166 -352 353 0
296 -167 -357 -358 0
296 167 357 -358 0
296 -167 357 358 0
296 167 -357 358 0
296 -168 -362 -363 0
296 168 362 -363 0
296 -168 362 363 0
296 168 -362 363 0
296 -169 -367 -368 0
296 169 367 -368 0
296 -169 367 368 0
296 169 -367 368 0
296 -170 -372 -373 0
296 170 372 -373 0
296 -170 372 373 0
296 170 -372 373 0
296 -163 -377 -378 0
296 163 377 -378 0
296 -163 377 378 0
296 163 -377 378 0
296 -163 -382 -383 0
296 163 382 -383 0
296 -163 382 383 0
296 163 -382 383 0
296 -121 -127 -386 0
296 121 127 -386 0
296 121 -127 386 0
296 -121 127 386 0
296 -174 -392 -393 0
296 174 392 -393 0
296 -174 392 393 0
296 174 -392 393 0
296 -123 -129 -396 0
296 123 129 -396 0
296 123 -129 396 0
296 -123 129 396 0
296 -124 -130 -401 0
296 124 130 -401 0
296 124 -130 401 0
296 -124 130 401 0
296 -125 -131 -406 0
296 125 131 -406 0
296 125 -131 406 0
296 -125 131 406 0
296 -178 -412 -413 0
296 178 412 -413 0
296 -178 412 413 0
296 178 -412 413 0
296 -118 -133 -416 0
296 118 133 -416 0
296 118 -133 416 0
296 -118 133 416 0
296 -172 -422 -423 0
296 172 422 -423 0
296 -172 422 423 0
296 172 -422 423 0
296 -172 -427 -428 0
296 172 427 -428 0
296 -172 427 428 0
296 172 -427 428 0
296 -182 -432 -433 0
296 182 432 -433 0
296 -182 432 433 0
296 182 -432 433 0
296 -183 -437 -438 0
296 183 437 -438 0
296 -183 437 438 0
296 183 -437 438 0
296 -184 -442 -443 0
296 184 442 -443 0
296 -184 442 443 0
296 184 -442 443 0
296 -185 -447 -448 0
296 185 447 -448 0
296 -185 447 448 0
296 185 -447 448 0
296 -134 -140 -451 0
296 134 140 -451 0
296 134 -140 451 0
296 -134 140 451 0
296 -135 -141 -456 0
296 135 141 -456 0
296 135 -141 456 0
296 -135 141 456 0
296 -127 -142 -461 0
296 127 142 -461 0
296 127 -142 461 0
296 -127 142 461 0
296 -128 -143 -466 0
296 128 143 -466 0
296 128 -143 466 0
296 -128 143 466 0
296 -129 -144 -471 0
296 129 144 -471 0
296 129 -144 471 0
296 -129 144 471 0
296 -163 -477 -478 0
296 163 477 -478 0
296 -163 477 478 0
296 163 -477 478 0
296 -140 -146 -481 0
296 140 146 -481 0
296 140 -146 481 0
296 -140 146 481 0
296 -141 -147 -486 0
296 141 147 -486 0
296 141 -147 486 0
296 -141 147 486 0
296 -166 -492 -493 0
296 166 492 -493 0
296 -166 492 493 0
296 166 -492 493 0
296 -167 -497 -498 0
296 167 497 -498 0
296 -167 497 498 0
296 167 -497 498 0
296 -144 -150 -501 0
296 144 150 -501 0
296 144 -150 501 0
296 -144 150 501 0
296 -136 -151 -506 0
296 136 151 -506 0
296 136 -151 506 0
296 -136 151 506 0
296 -170 -512 -513 0
296 170 512 -513 0
296 -170 512 513 0
296 170 -512 513 0
296 -138 -153 -516 0
296 138 153 -516 0
296 138 -153 516 0
296 -138 153 516 0
296 -172 -522 -523 0
296 172 522 -523 0
296 -172 522 523 0
296 172 -522 523 0
296 -173 -527 -528 0
296 173 527 -528 0
296 -173 527 528 0
296 173 -527 528 0
296 -111 -150 -531 0
296 111 150 -531 0
296 111 -150 531 0
296 -111 150 531 0
296 -112 -151 -536 0
296 112 151 -536 0
296 112 -151 536 0
296 -112 151 536 0
296 -113 -152 -541 0
296 113 152 -541 0
296 113 -152 541 0
296 -113 152 541 0
296 -114 -153 -546 0
296 114 153 -546 0
296 114 -153 546 0
296 -114 153 546 0
296 -115 -145 -551 0
296 115 145 -551 0
296 115 -145 551 0
296 -115 145 551 0
296 -116 -146 -556 0
296 116 146 -556 0
296 116 -146 556 0
296 -116 146 556 0
296 -117 -147 -561 0
296 117 147 -561 0
296 117 -147 561 0
296 -117 147 561 0
296 -181 -567 -568 0
296 181 567 -568 0
296 -181 567 568 0
296 181 -567 568 0
296 -182 -572 -573 0
296 182 572 -573 0
296 -182 572 573 0
296 182 -572 573 0
296 -183 -577 -578 0
296 183 577 -578 0
296 -183 577 578 0
296 183 -577 578 0
296 -184 -582 -583 0
296 184 582 -583 0
296 -184 582 583 0
296 184 -582 583 0
296 -185 -587 -588 0
296 185 587 -588 0
296 -185 587 588 0
296 185 -587 588 0
296 -186 -592 -593 0
296 186 592 -593 0
296 -186 592 593 0
296 186 -592 593 0
296 -115 -124 -596 0
296 115 124 -596 0
296 115 -124 596 0
296 -115 124 596 0
296 -188 -602 -603 0
296 188 602 -603 0
296 -188 602 603 0
296 188 -602 603 0
296 -189 -607 -608 0
296 189 607 -608 0
296 -189 607 608 0
296 189 -607 608 0
296 -61 -612 -613 0
296 61 612 -613 0
296 -61 612 613 0
296 61 -612 613 0
296 -1 -9 -616 0
296 1 9 -616 0
296 1 -9 616 0
296 -1 9 616 0
296 -63 -622 -623 0
296 63 622 -623 0
296 -63 622 623 0
296 63 -622 623 0
296 -55 -627 -628 0
296 55 627 -628 0
296 -55 627 628 0
296 55 -627 628 0
296 -56 -632 -633 0
296 56 632 -633 0
296 -56 632 633 0
296 56 -632 633 0
296 -4 -5 -636 0
296 4 5 -636 0
296 4 -5 636 0
296 -4 5 636 0
296 -58 -642 -643 0
296 58 642 -643 0
296 -58 642 643 0
296 58 -642 643 0
296 -6 -7 -646 0
296 6 7 -646 0
296 6 -7 646 0
296 -6 7 646 0
296 -60 -652 -653 0
296 60 652 -653 0
296 -60 652 653 0
296 60 -652 653 0
296 -55 -657 -658 0
296 55 657 -658 0
296 -55 657 658 0
296 55 -657 658 0
296 -10 -18 -661 0
296 10 18 -661 0
296 10 -18 661 0
296 -10 18 661 0
296 -57 -667 -668 0
296 57 667 -668 0
296 -57 667 668 0
296 57 -667 668 0
296 -58 -672 -673 0
296 58 672 -673 0
296 -58 672 673 0
296 58 -672 673 0
296 -12 -13 -676 0
296 12 13 -676 0
296 12 -13 676 0
296 -12 13 676 0
296 -13 -14 -681 0
296 13 14 -681 0
296 13 -14 681 0
296 -13 14 681 0
296 -61 -687 -688 0
296 61 687 -688 0
296 -61 687 688 0
296 61 -687 688 0
296 -15 -16 -691 0
296 15 16 -691 0
296 15 -16 691 0
296 -15 16 691 0
296 -16 -17 -696 0
296 16 17 -696 0
296 16 -17 696 0
296 -16 17 696 0
296 -55 -702 -703 0
296 55 702 -703 0
296 -55 702 703 0
296 55 -702 703 0
296 -56 -707 -708 0
296 56 707 -708 0
296 -56 707 708 0
296 56 -707 708 0
296 -57 -712 -713 0
296 57 712 -713 0
296 -57 712 713 0
296 57 -712 713 0
296 -20 -21 -716 0
296 20 21 -716 0
296 20 -21 716 0
296 -20 21 716 0
296 -21 -22 -721 0
296 21 22 -721 0
296 21 -22 721 0
296 -21 22 721 0
296 -60 -727 -728 0
296 60 727 -728 0
296 -60 727 728 0
296 60 -727 728 0
296 -23 -24 -731 0
296 23 24 -731 0
296 23 -24 731 0
296 -23 24 731 0
296 -24 -25 -736 0
296 24 25 -736 0
296 24 -25 736 0
296 -24 25 736 0
296 -25 -26 -741 0
296 25 26 -741 0
296 25 -26 741 0
296 -25 26 741 0
296 -64 -747 -748 0
296 64 747 -748 0
296 -64 747 748 0
296 64 -747 748 0
296 -65 -752 -753 0
296 65 752 -753 0
296 -65 752 753 0
296 65 -752 753 0
296 -3 -28 -756 0
296 3 28 -756 0
296 3 -28 756 0
296 -3 28 756 0
296 -4 -29 -761 0
296 4 29 -761 0
296 4 -29 761 0
296 -4 29 761 0
296 -68 -767 -768 0
296 68 767 -768 0
296 -68 767 768 0
296 68 -767 768 0
296 -69 -772 -773 0
296 69 772 -773 0
296 -69 772 773 0
296 69 -772 773 0
296 -7 -32 -776 0
296 7 32 -776 0
296 7 -32 776 0
296 -7 32 776 0
296 -8 -33 -781 0
296 8 33 -781 0
296 8 -33 781 0
296 -8 33 781 0
296 -72 -787 -788 0
296 72 787 -788 0
296 -72 787 788 0
296 72 -787 788 0
296 -73 -792 -793 0
296 73 792 -793 0
296 -73 792 793 0
296 73 -792 793 0
296 -74 -797 -798 0
296 74 797 -798 0
296 -74 797 798 0
296 74 -797 798 0
296 -12 -37 -801 0
296 12 37 -801 0
296 12 -37 801 0
296 -12 37 801 0
296 -13 -38 -806 0
296 13 38 -806 0
296 13 -38 806 0
296 -13 38 806 0
296 -14 -39 -811 0
296 14 39 -811 0
296 14 -39 811 0
296 -14 39 811 0
296 -15 -40 -816 0
296 15 40 -816 0
296 15 -40 816 0
296 -15 40 816 0
296 -16 -41 -821 0
296 16 41 -821 0
296 16 -41 821 0
296 -16 41 821 0
296 -80 -827 -828 0
296 80 827 -828 0
296 -80 827 828 0
296 80 -827 828 0
296 -18 -43 -831 0
296 18 43 -831 0
296 18 -43 831 0
296 -18 43 831 0
296 -82 -837 -838 0
296 82 837 -838 0
296 -82 837 838 0
296 82 -837 838 0
296 -83 -842 -843 0
296 83 842 -843 0
296 -83 842 843 0
296 83 -842 843 0
296 -21 -46 -846 0
296 21 46 -846 0
296 21 -46 846 0
296 -21 46 846 0
296 -22 -47 -851 0
296 22 47 -851 0
296 22 -47 851 0
296 -22 47 851 0
296 -86 -857 -858 0
296 86 857 -858 0
296 -86 857 858 0
296 86 -857 858 0
296 -87 -862 -863 0
296 87 862 -863 0
296 -87 862 863 0
296 87 -862 863 0
296 -88 -867 -868 0
296 88 867 -868 0
296 -88 867 868 0
296 88 -867 868 0
296 -89 -872 -873 0
296 89 872 -873 0
296 -89 872 873 0
296 89 -872 873 0
296 -90 -877 -878 0
296 90 877 -878 0
296 -90 877 878 0
296 90 -877 878 0
296 1 2 3 4 5 6 7 8 9 10 11 12 13 14 15 16 17 18 19 20 21 22 23 24 25 26 27 28 29 30 31 32 33 34 35 36 37 38 39 40 41 42 43 44 45 46 47 48 49 50 51 52 53 54 55 56 57 58 59 60 61 62 63 64 65 66 67 68 69 70 71 72 73 74 75 76 77 78 79 80 81 82 83 84 85 86 87 88 89 90 91 92 93 94 95 96 97 98 99 100 101 102 103 104 105 106 107 108 109 110 111 112 113 114 115 116 117 118 119 120 121 122 123 124 125 126 127 128 129 130 131 132 133 134 135 136 137 138 139 140 141 142 143 144 145 146 147 148 149 150 151 152 153 154 155 156 157 158 159 160 161 162 163 164 165 166 167 168 169 170 171 172 173 174 175 176 177 178 179 180 181 182 183 184 185 186 187 188 189 190 191 192 193 194 195 196 197 198 199 200 201 202 203 204 205 206 207 208 209 210 211 212 213 214 215 216 0
296 -1 -4 -881 0
296 1 4 -881 0
296 1 -4 881 0
296 -1 4 881 0
296 -13 -883 -884 0
296 13 883 -884 0
296 -13 883 884 0
296 13 -883 884 0
296 -43 -890 -891 0
296 43 890 -891 0
296 -43 890 891 0
296 43 -890 891 0
296 -17 -896 -897 0
296 17 896 -897 0
296 -17 896 897 0
296 17 -896 897 0
296 -35 -899 -900 0
296 35 899 -900 0
296 -35 899 900 0
296 35 -899 900 0
296 -19 -906 -907 0
296 19 906 -907 0
296 -19 906 907 0
296 19 -906 907 0
296 -28 -909 -910 0
296 28 909 -910 0
296 -28 909 910 0
296 28 -909 910 0
296 -2 -5 -917 0
296 2 5 -917 0
296 2 -5 917 0
296 -2 5 917 0
296 -23 -919 -920 0
296 23 919 -920 0
296 -23 919 920 0
296 23 -919 920 0
296 -32 -922 -923 0
296 32 922 -923 0
296 -32 922 923 0
296 32 -922 923 0
296 -50 -925 -926 0
296 50 925 -926 0
296 -50 925 926 0
296 50 -925 926 0
296 -1 -7 -929 0
296 1 7 -929 0
296 1 -7 929 0
296 -1 7 929 0
296 -23 -933 -934 0
296 23 933 -934 0
296 -23 933 934 0
296 23 -933 934 0
296 -11 -946 -947 0
296 11 946 -947 0
296 -11 946 947 0
296 11 -946 947 0
296 -22 -949 -950 0
296 22 949 -950 0
296 -22 949 950 0
296 22 -949 950 0
296 -32 -954 -955 0
296 32 954 -955 0
296 -32 954 955 0
296 32 -954 955 0
296 -46 -957 -958 0
296 46 957 -958 0
296 -46 957 958 0
296 46 -957 958 0
296 -1 -10 -963 0
296 1 10 -963 0
296 1 -10 963 0
296 -1 10 963 0
296 -19 -965 -966 0
296 19 965 -966 0
296 -19 965 966 0
296 19 -965 966 0
296 -11 -978 -979 0
296 11 978 -979 0
296 -11 978 979 0
296 11 -978 979 0
296 -19 -981 -982 0
296 19 981 -982 0
296 -19 981 982 0
296 19 -981 982 0
296 -33 -986 -987 0
296 33 986 -987 0
296 -33 986 987 0
296 33 -986 987 0
296 -64 -993 -994 0
296 64 993 -994 0
296 -64 993 994 0
296 64 -993 994 0
296 -109 -110 -997 0
296 109 110 -997 0
296 109 -110 997 0
296 -109 110 997 0
296 -115 -999 -1000 0
296 115 999 -1000 0
296 -115 999 1000 0
296 115 -999 1000 0
296 -137 -1002 -1003 0
296 137 1002 -1003 0
296 -137 1002 1003 0
296 137 -1002 1003 0
296 -142 -1005 -1006 0
296 142 1005 -1006 0
296 -142 1005 1006 0
296 142 -1005 1006 0
296 -117 -1012 -1013 0
296 117 1012 -1013 0
296 -117 1012 1013 0
296 117 -1012 1013 0
296 -142 -1017 -1018 0
296 142 1017 -1018 0
296 -142 1017 1018 0
296 142 -1017 1018 0
296 -125 -1024 -1025 0
296 125 1024 -1025 0
296 -125 1024 1025 0
296 125 -1024 1025 0
296 -148 -1027 -1028 0
296 148 1027 -1028 0
296 -148 1027 1028 0
296 148 -1027 1028 0
296 -118 -120 -1033 0
296 118 120 -1033 0
296 118 -120 1033 0
296 -118 120 1033 0
296 -124 -1035 -1036 0
296 124 1035 -1036 0
296 -124 1035 1036 0
296 124 -1035 1036 0
296 -142 -1056 -1057 0
296 142 1056 -1057 0
296 -142 1056 1057 0
296 142 -1056 1057 0
296 -163 -1059 -1060 0
296 163 1059 -1060 0
296 -163 1059 1060 0
296 163 -1059 1060 0
296 -126 -1088 -1089 0
296 126 1088 -1089 0
296 -126 1088 1089 0
296 126 -1088 1089 0
296 -133 -1091 -1092 0
296 133 1091 -1092 0
296 -133 1091 1092 0
296 133 -1091 1092 0
296 -111 -113 -1107 0
296 111 113 -1107 0
296 111 -113 1107 0
296 -111 113 1107 0
296 -132 -1113 -1114 0
296 132 1113 -1114 0
296 -132 1113 1114 0
296 132 -1113 1114 0
296 -149 -1122 -1123 0
296 149 1122 -1123 0
296 -149 1122 1123 0
296 149 -1122 1123 0
296 -158 -1125 -1126 0
296 158 1125 -1126 0
296 -158 1125 1126 0
296 158 -1125 1126 0
296 1 109 -217 0
296 -1 217 0
296 -109 217 0
296 2 110 -218 0
296 -2 218 0
296 -110 218 0
296 3 111 -219 0
296 -3 219 0
296 -111 219 0
296 4 112 -220 0
296 -4 220 0
296 -112 220 0
296 5 113 -221 0
296 -5 221 0
296 -113 221 0
296 6 114 -222 0
296 -6 222 0
296 -114 222 0
296 7 115 -223 0
296 -7 223 0
296 -115 223 0
296 8 116 -224 0
296 -8 224 0
296 -116 224 0
296 9 117 -225 0
296 -9 225 0
296 -117 225 0
296 10 118 -226 0
296 -10 226 0
296 -118 226 0
296 11 119 -227 0
296 -11 227 0
296 -119 227 0
296 12 120 -228 0
296 -12 228 0
296 -120 228 0
296 13 121 -229 0
296 -13 229 0
296 -121 229 0
296 14 122 -230 0
296 -14 230 0
296 -122 230 0
296 15 123 -231 0
296 -15 231 0
296 -123 231 0
296 16 124 -232 0
296 -16 232 0
296 -124 232 0
296 17 125 -233 0
296 -17 233 0
296 -125 233 0
296 18 126 -234 0
296 -18 234 0
296 -126 234 0
296 19 127 -235 0
296 -19 235 0
296 -127 235 0
296 20 128 -236 0
296 -20 236 0
296 -128 236 0
296 21 129 -237 0
296 -21 237 0
296 -129 237 0
296 22 130 -238 0
296 -22 238 0
296 -130 238 0
296 23 131 -239 0
296 -23 239 0
296 -131 239 0
296 24 132 -240 0
296 -24 240 0
296 -132 240 0
296 25 133 -241 0
296 -25 241 0
296 -133 241 0
296 26 134 -242 0
296 -26 242 0
296 -134 242 0
296 27 135 -243 0
296 -27 243 0
296 -135 243 0
296 28 136 -244 0
296 -28 244 0
296 -136 244 0
296 29 137 -245 0
296 -29 245 0
296 -137 245 0
296 30 138 -246 0
296 -30 246 0
296 -138 246 0
296 31 139 -247 0
296 -31 247 0
296 -139 247 0
296 32 140 -248 0
296 -32 248 0
296 -140 248 0
296 33 141 -249 0
296 -33 249 0
296 -141 249 0
296 34 142 -250 0
296 -34 250 0
296 -142 250 0
296 35 143 -251 0
296 -35 251 0
296 -143 251 0
296 36 144 -252 0
296 -36 252 0
296 -144 252 0
296 37 145 -253 0
296 -37 253 0
296 -145 253 0
296 38 146 -254 0
296 -38 254 0
296 -146 254 0
296 39 147 -255 0
296 -39 255 0
296 -147 255 0
296 40 148 -256 0
296 -40 256 0
296 -148 256 0
296 41 149 -257 0
296 -41 257 0
296 -149 257 0
296 42 150 -258 0
296 -42 258 0
296 -150 258 0
296 43 151 -259 0
296 -43 259 0
296 -151 259 0
296 44 152 -260 0
296 -44 260 0
296 -152 260 0
296 45 153 -261 0
296 -45 261 0
296 -153 261 0
296 46 154 -262 0
296 -46 262 0
296 -154 262 0
296 47 155 -263 0
296 -47 263 0
296 -155 263 0
296 48 156 -264 0
296 -48 264 0
296 -156 264 0
296 49 157 -265 0
296 -49 265 0
296 -157 265 0
296 50 158 -266 0
296 -50 266 0
296 -158 266 0
296 51 159 -267 0
296 -51 267 0
296 -159 267 0
296 52 160 -268 0
296 -52 268 0
296 -160 268 0
296 53 161 -269 0
296 -53 269 0
296 -161 269 0
296 54 162 -270 0
296 -54 270 0
296 -162 270 0
296 55 163 -271 0
296 -55 271 0
296 -163 271 0
296 56 164 -272 0
296 -56 272 0
296 -164 272 0
296 57 165 -273 0
296 -57 273 0
296 -165 273 0
296 58 166 -274 0
296 -58 274 0
296 -166 274 0
296 59 167 -275 0
296 -59 275 0
296 -167 275 0
296 60 168 -276 0
296 -60 276 0
296 -168 276 0
296 61 169 -277 0
296 -61 277 0
296 -169 277 0
296 62 170 -278 0
296 -62 278 0
296 -170 278 0
296 63 171 -279 0
296 -63 279 0
296 -171 279 0
296 64 172 -280 0
296 -64 280 0
296 -172 280 0
296 65 173 -281 0
296 -65 281 0
296 -173 281 0
296 66 174 -282 0
296 -66 282 0
296 -174 282 0
296 67 175 -283 0
296 -67 283 0
296 -175 283 0
296 68 176 -284 0
296 -68 284 0
296 -176 284 0
296 69 177 -285 0
296 -69 285 0
296 -177 285 0
296 70 178 -286 0
296 -70 286 0
296 -178 286 0
296 71 179 -287 0
296 -71 287 0
296 -179 287 0
296 72 180 -288 0
296 -72 288 0
296 -180 288 0
296 73 181 -289 0
296 -73 289 0
296 -181 289 0
296 74 182 -290 0
296 -74 290 0
296 -182 290 0
296 75 183 -291 0
296 -75 291 0
296 -183 291 0
296 76 184 -292 0
296 -76 292 0
296 -184 292 0
296 77 185 -293 0
296 -77 293 0
296 -185 293 0
296 78 186 -294 0
296 -78 294 0
296 -186 294 0
296 79 187 -295 0
296 -79 295 0
296 -187 295 0
296 80 188 -296 0
296 -80 296 0
296 -188 296 0
296 81 189 -297 0
296 -81 297 0
296 -189 297 0
296 82 190 -298 0
296 -82 298 0
296 -190 298 0
296 83 191 -299 0
296 -83 299 0
296 -191 299 0
296 84 192 -300 0
296 -84 300 0
296 -192 300 0
296 85 193 -301 0
296 -85 301 0
296 -193 301 0
296 86 194 -302 0
296 -86 302 0
296 -194 302 0
296 87 195 -303 0
296 -87 303 0
296 -195 303 0
296 88 196 -304 0
296 -88 304 0
296 -196 304 0
296 89 197 -305 0
296 -89 305 0
296 -197 305 0
296 90 198 -306 0
296 -90 306 0
296 -198 306 0
296 91 199 -307 0
296 -91 307 0
296 -199 307 0
296 92 200 -308 0
296 -92 308 0
296 -200 308 0
296 93 201 -309 0
296 -93 309 0
296 -201 309 0
296 94 202 -310 0
296 -94 310 0
296 -202 310 0
296 95 203 -311 0
296 -95 311 0
296 -203 311 0
296 96 204 -312 0
296 -96 312 0
296 -204 312 0
296 97 205 -313 0
296 -97 313 0
296 -205 313 0
296 98 206 -314 0
296 -98 314 0
296 -206 314 0
296 99 207 -315 0
296 -99 315 0
296 -207 315 0
296 100 208 -316 0
296 -100 316 0
296 -208 316 0
296 101 209 -317 0
296 -101 317 0
296 -209 317 0
296 102 210 -318 0
296 -102 318 0
296 -210 318 0
296 103 211 -319 0
296 -103 319 0
296 -211 319 0
296 104 212 -320 0
296 -104 320 0
296 -212 320 0
296 105 213 -321 0
296 -105 321 0
296 -213 321 0
296 106 214 -322 0
296 -106 322 0
296 -214 322 0
296 107 215 -323 0
296 -107 323 0
296 -215 323 0
296 108 216 -324 0
296 -108 324 0
296 -216 324 0
296 326 327 328 329 330 331 332 333 334 335 336 337 338 339 340 891 0
296 -190 198 513 0
296 190 198 -513 0
296 -190 -198 -513 0
296 190 -198 513 0
296 -152 335 1030 0
296 152 335 -1030 0
296 -152 -335 -1030 0
296 152 -335 1030 0
296 -190 191 518 0
296 190 191 -518 0
296 -190 -191 -518 0
296 190 -191 518 0
296 -182 340 1128 0
296 182 340 -1128 0
296 -182 -340 -1128 0
296 182 -340 1128 0
296 -153 336 1042 0
296 153 336 -1042 0
296 -153 -336 -1042 0
296 153 -336 1042 0
296 -200 201 523 0
296 200 201 -523 0
296 -200 -201 -523 0
296 200 -201 523 0
296 -201 202 528 0
296 201 202 -528 0
296 -201 -202 -528 0
296 201 -202 528 0
296 -172 337 1060 0
296 172 337 -1060 0
296 -172 -337 -1060 0
296 172 -337 1060 0
296 -202 203 533 0
296 202 203 -533 0
296 -202 -203 -533 0
296 202 -203 533 0
296 -203 204 538 0
296 203 204 -538 0
296 -203 -204 -538 0
296 203 -204 538 0
296 -173 338 1076 0
296 173 338 -1076 0
296 -173 -338 -1076 0
296 173 -338 1076 0
296 -204 205 543 0
296 204 205 -543 0
296 -204 -205 -543 0
296 204 -205 543 0
296 -205 206 548 0
296 205 206 -548 0
296 -205 -206 -548 0
296 205 -206 548 0
296 -181 339 1104 0
296 181 339 -1104 0
296 -181 -339 -1104 0
296 181 -339 1104 0
296 -206 207 553 0
296 206 207 -553 0
296 -206 -207 -553 0
296 206 -207 553 0
296 -199 207 558 0
296 199 207 -558 0
296 -199 -207 -558 0
296 199 -207 558 0
296 -199 200 563 0
296 199 200 -563 0
296 -199 -200 -563 0
296 199 -200 563 0
296 -209 210 568 0
296 209 210 -568 0
296 -209 -210 -568 0
296 209 -210 568 0
296 -210 211 573 0
296 210 211 -573 0
296 -210 -211 -573 0
296 210 -211 573 0
296 -211 212 578 0
296 211 212 -578 0
296 -211 -212 -578 0
296 211 -212 578 0
296 -212 213 583 0
296 212 213 -583 0
296 -212 -213 -583 0
296 212 -213 583 0
296 -213 214 588 0
296 213 214 -588 0
296 -213 -214 -588 0
296 213 -214 588 0
296 -214 215 593 0
296 214 215 -593 0
296 -214 -215 -593 0
296 214 -215 593 0
296 -215 216 598 0
296 215 216 -598 0
296 -215 -216 -598 0
296 215 -216 598 0
296 -208 216 603 0
296 208 216 -603 0
296 -208 -216 -603 0
296 208 -216 603 0
296 -208 209 608 0
296 208 209 -608 0
296 -208 -209 -608 0
296 208 -209 608 0
296 -91 100 613 0
296 91 100 -613 0
296 -91 -100 -613 0
296 91 -100 613 0
296 -92 101 618 0
296 92 101 -618 0
296 -92 -101 -618 0
296 92 -101 618 0
296 -93 102 623 0
296 93 102 -623 0
296 -93 -102 -623 0
296 93 -102 623 0
296 -94 103 628 0
296 94 103 -628 0
296 -94 -103 -628 0
296 94 -103 628 0
296 -95 104 633 0
296 95 104 -633 0
296 -95 -104 -633 0
296 95 -104 633 0
296 -96 105 638 0
296 96 105 -638 0
296 -96 -105 -638 0
296 96 -105 638 0
296 -97 106 643 0
296 97 106 -643 0
296 -97 -106 -643 0
296 97 -106 643 0
296 -98 107 648 0
296 98 107 -648 0
296 -98 -107 -648 0
296 98 -107 648 0
296 -99 108 653 0
296 99 108 -653 0
296 -99 -108 -653 0
296 99 -108 653 0
296 -70 100 658 0
296 70 100 -658 0
296 -70 -100 -658 0
296 70 -100 658 0
296 -71 101 663 0
296 71 101 -663 0
296 -71 -101 -663 0
296 71 -101 663 0
296 -72 102 668 0
296 72 102 -668 0
296 -72 -102 -668 0
296 72 -102 668 0
296 -64 103 673 0
296 64 103 -673 0
296 -64 -103 -673 0
296 64 -103 673 0
296 -65 104 678 0
296 65 104 -678 0
296 -65 -104 -678 0
296 65 -104 678 0
296 -66 105 683 0
296 66 105 -683 0
296 -66 -105 -683 0
296 66 -105 683 0
296 -165 190 343 0
296 165 190 -343 0
296 -165 -190 -343 0
296 165 -190 343 0
296 -67 106 688 0
296 67 106 -688 0
296 -67 -106 -688 0
296 67 -106 688 0
296 -68 107 693 0
296 68 107 -693 0
296 -68 -107 -693 0
296 68 -107 693 0
296 -166 191 348 0
296 166 191 -348 0
296 -166 -191 -348 0
296 166 -191 348 0
296 -69 108 698 0
296 69 108 -698 0
296 -69 -108 -698 0
296 69 -108 698 0
296 -167 192 353 0
296 167 192 -353 0
296 -167 -192 -353 0
296 167 -192 353 0
296 -64 79 703 0
296 64 79 -703 0
296 -64 -79 -703 0
296 64 -79 703 0
296 -65 80 708 0
296 65 80 -708 0
296 -65 -80 -708 0
296 65 -80 708 0
296 -66 81 713 0
296 66 81 -713 0
296 -66 -81 -713 0
296 66 -81 713 0
296 -67 73 718 0
296 67 73 -718 0
296 -67 -73 -718 0
296 67 -73 718 0
296 -168 193 358 0
296 168 193 -358 0
296 -168 -193 -358 0
296 168 -193 358 0
296 -68 74 723 0
296 68 74 -723 0
296 -68 -74 -723 0
296 68 -74 723 0
296 -169 194 363 0
296 169 194 -363 0
296 -169 -194 -363 0
296 169 -194 363 0
296 -69 75 728 0
296 69 75 -728 0
296 -69 -75 -728 0
296 69 -75 728 0
296 -70 76 733 0
296 70 76 -733 0
296 -70 -76 -733 0
296 70 -76 733 0
296 -170 195 368 0
296 170 195 -368 0
296 -170 -195 -368 0
296 170 -195 368 0
296 -71 77 738 0
296 71 77 -738 0
296 -71 -77 -738 0
296 71 -77 738 0
296 -72 78 743 0
296 72 78 -743 0
296 -72 -78 -743 0
296 72 -78 743 0
296 -171 196 373 0
296 171 196 -373 0
296 -171 -196 -373 0
296 171 -196 373 0
296 -73 88 748 0
296 73 88 -748 0
296 -73 -88 -748 0
296 73 -88 748 0
296 -76 82 763 0
296 76 82 -763 0
296 -76 -82 -763 0
296 76 -82 763 0
296 -171 197 378 0
296 171 197 -378 0
296 -171 -197 -378 0
296 171 -197 378 0
296 -74 89 753 0
296 74 89 -753 0
296 -74 -89 -753 0
296 74 -89 753 0
296 -75 90 758 0
296 75 90 -758 0
296 -75 -90 -758 0
296 75 -90 758 0
296 -164 198 383 0
296 164 198 -383 0
296 -164 -198 -383 0
296 164 -198 383 0
296 -77 83 768 0
296 77 83 -768 0
296 -77 -83 -768 0
296 77 -83 768 0
296 -81 87 788 0
296 81 87 -788 0
296 -81 -87 -788 0
296 81 -87 788 0
296 -78 84 773 0
296 78 84 -773 0
296 -78 -84 -773 0
296 78 -84 773 0
296 -174 199 388 0
296 174 199 -388 0
296 -174 -199 -388 0
296 174 -199 388 0
296 -79 85 778 0
296 79 85 -778 0
296 -79 -85 -778 0
296 79 -85 778 0
296 -80 86 783 0
296 80 86 -783 0
296 -80 -86 -783 0
296 80 -86 783 0
296 -82 97 793 0
296 82 97 -793 0
296 -82 -97 -793 0
296 82 -97 793 0
296 -175 200 393 0
296 175 200 -393 0
296 -175 -200 -393 0
296 175 -200 393 0
296 -176 201 398 0
296 176 201 -398 0
296 -176 -201 -398 0
296 176 -201 398 0
296 -177 202 403 0
296 177 202 -403 0
296 -177 -202 -403 0
296 177 -202 403 0
296 -83 98 798 0
296 83 98 -798 0
296 -83 -98 -798 0
296 83 -98 798 0
296 -85 91 808 0
296 85 91 -808 0
296 -85 -91 -808 0
296 85 -91 808 0
296 -84 99 803 0
296 84 99 -803 0
296 -84 -99 -803 0
296 84 -99 803 0
296 -86 92 813 0
296 86 92 -813 0
296 -86 -92 -813 0
296 86 -92 813 0
296 -87 93 818 0
296 87 93 -818 0
296 -87 -93 -818 0
296 87 -93 818 0
296 -178 203 408 0
296 178 203 -408 0
296 -178 -203 -408 0
296 178 -203 408 0
296 -88 94 823 0
296 88 94 -823 0
296 -88 -94 -823 0
296 88 -94 823 0
296 -89 95 828 0
296 89 95 -828 0
296 -89 -95 -828 0
296 89 -95 828 0
296 -179 204 413 0
296 179 204 -413 0
296 -179 -204 -413 0
296 179 -204 413 0
296 -180 205 418 0
296 180 205 -418 0
296 -180 -205 -418 0
296 180 -205 418 0
296 -90 96 833 0
296 90 96 -833 0
296 -90 -96 -833 0
296 90 -96 833 0
296 -91 106 838 0
296 91 106 -838 0
296 -91 -106 -838 0
296 91 -106 838 0
296 -92 107 843 0
296 92 107 -843 0
296 -92 -107 -843 0
296 92 -107 843 0
296 -180 206 423 0
296 180 206 -423 0
296 -180 -206 -423 0
296 180 -206 423 0
296 -93 108 848 0
296 93 108 -848 0
296 -93 -108 -848 0
296 93 -108 848 0
296 -94 100 853 0
296 94 100 -853 0
296 -94 -100 -853 0
296 94 -100 853 0
296 -173 207 428 0
296 173 207 -428 0
296 -173 -207 -428 0
296 173 -207 428 0
296 -95 101 858 0
296 95 101 -858 0
296 -95 -101 -858 0
296 95 -101 858 0
296 -96 102 863 0
296 96 102 -863 0
296 -96 -102 -863 0
296 96 -102 863 0
296 -183 208 433 0
296 183 208 -433 0
296 -183 -208 -433 0
296 183 -208 433 0
296 -97 103 868 0
296 97 103 -868 0
296 -97 -103 -868 0
296 97 -103 868 0
296 -99 105 878 0
296 99 105 -878 0
296 -99 -105 -878 0
296 99 -105 878 0
296 -184 209 438 0
296 184 209 -438 0
296 -184 -209 -438 0
296 184 -209 438 0
296 -98 104 873 0
296 98 104 -873 0
296 -98 -104 -873 0
296 98 -104 873 0
296 -185 210 443 0
296 185 210 -443 0
296 -185 -210 -443 0
296 185 -210 443 0
296 -186 211 448 0
296 186 211 -448 0
296 -186 -211 -448 0
296 186 -211 448 0
296 -44 326 902 0
296 44 326 -902 0
296 -44 -326 -902 0
296 44 -326 902 0
296 -187 212 453 0
296 187 212 -453 0
296 -187 -212 -453 0
296 187 -212 453 0
296 -52 327 914 0
296 52 327 -914 0
296 -52 -327 -914 0
296 52 -327 914 0
296 -188 213 458 0
296 188 213 -458 0
296 -188 -213 -458 0
296 188 -213 458 0
296 -53 328 926 0
296 53 328 -926 0
296 -53 -328 -926 0
296 53 -328 926 0
296 -189 214 463 0
296 189 214 -463 0
296 -189 -214 -463 0
296 189 -214 463 0
296 -189 215 468 0
296 189 215 -468 0
296 -189 -215 -468 0
296 189 -215 468 0
296 -56 329 940 0
296 56 329 -940 0
296 -56 -329 -940 0
296 56 -329 940 0
296 -182 216 473 0
296 182 216 -473 0
296 -182 -216 -473 0
296 182 -216 473 0
296 -191 192 478 0
296 191 192 -478 0
296 -191 -192 -478 0
296 191 -192 478 0
296 -57 330 960 0
296 57 330 -960 0
296 -57 -330 -960 0
296 57 -330 960 0
296 -192 193 483 0
296 192 193 -483 0
296 -192 -193 -483 0
296 192 -193 483 0
296 -65 331 974 0
296 65 331 -974 0
296 -65 -331 -974 0
296 65 -331 974 0
296 -193 194 488 0
296 193 194 -488 0
296 -193 -194 -488 0
296 193 -194 488 0
296 -194 195 493 0
296 194 195 -493 0
296 -194 -195 -493 0
296 194 -195 493 0
296 -195 196 498 0
296 195 196 -498 0
296 -195 -196 -498 0
296 195 -196 498 0
296 -66 332 994 0
296 66 332 -994 0
296 -66 -332 -994 0
296 66 -332 994 0
296 -143 333 1006 0
296 143 333 -1006 0
296 -143 -333 -1006 0
296 143 -333 1006 0
296 -196 197 503 0
296 196 197 -503 0
296 -196 -197 -503 0
296 196 -197 503 0
296 -197 198 508 0
296 197 198 -508 0
296 -197 -198 -508 0
296 197 -198 508 0
296 -144 334 1018 0
296 144 334 -1018 0
296 -144 -334 -1018 0
296 144 -334 1018 0
296 -29 -66 756 -758 0
296 -29 66 756 758 0
296 29 -66 -756 -758 0
296 29 66 -756 758 0
296 -29 66 -756 -758 0
296 29 66 756 -758 0
296 -29 -66 -756 758 0
296 29 -66 756 758 0
296 17 -42 -43 -827 0
296 17 -42 43 827 0
296 -17 42 -43 -827 0
296 -17 42 43 827 0
296 -17 -42 43 -827 0
296 17 42 43 -827 0
296 -17 -42 -43 827 0
296 17 42 -43 827 0
296 26 -51 -52 -872 0
296 26 -51 52 872 0
296 -26 51 -52 -872 0
296 -26 51 52 872 0
296 -26 -51 52 -872 0
296 26 51 52 -872 0
296 -26 -51 -52 872 0
296 26 51 -52 872 0
296 -145 -148 1120 -1122 0
296 -145 148 1120 1122 0
296 145 -148 -1120 -1122 0
296 145 148 -1120 1122 0
296 -145 148 -1120 -1122 0
296 145 148 1120 -1122 0
296 -145 -148 -1120 1122 0
296 145 -148 1120 1122 0
296 -145 -146 1025 -1027 0
296 -145 146 1025 1027 0
296 145 -146 -1025 -1027 0
296 145 146 -1025 1027 0
296 -145 146 -1025 -1027 0
296 145 146 1025 -1027 0
296 -145 -146 -1025 1027 0
296 145 -146 1025 1027 0
296 -147 -148 1038 -1040 0
296 -147 148 1038 1040 0
296 147 -148 -1038 -1040 0
296 147 148 -1038 1040 0
296 -147 148 -1038 -1040 0
296 147 148 1038 -1040 0
296 -147 -148 -1038 1040 0
296 147 -148 1038 1040 0
296 5 -30 -31 -767 0
296 5 -30 31 767 0
296 -5 30 -31 -767 0
296 -5 30 31 767 0
296 -5 -30 31 -767 0
296 5 30 31 -767 0
296 -5 -30 -31 767 0
296 5 30 -31 767 0
296 -149 -151 1028 -1030 0
296 -149 151 1028 1030 0
296 149 -151 -1028 -1030 0
296 149 151 -1028 1030 0
296 -149 151 -1028 -1030 0
296 149 151 1028 -1030 0
296 -149 -151 -1028 1030 0
296 149 -151 1028 1030 0
296 -162 -171 516 -518 0
296 -162 171 516 518 0
296 162 -171 -516 -518 0
296 162 171 -516 518 0
296 -162 171 -516 -518 0
296 162 171 516 -518 0
296 -162 -171 -516 518 0
296 162 -171 516 518 0
296 -54 -63 741 -743 0
296 -54 63 741 743 0
296 54 -63 -741 -743 0
296 54 63 -741 743 0
296 -54 63 -741 -743 0
296 54 63 741 -743 0
296 -54 -63 -741 743 0
296 54 -63 741 743 0
296 -121 -123 1033 -1035 0
296 -121 123 1033 1035 0
296 121 -123 -1033 -1035 0
296 121 123 -1033 1035 0
296 -121 123 -1033 -1035 0
296 121 123 1033 -1035 0
296 -121 -123 -1033 1035 0
296 121 -123 1033 1035 0
296 -53 -62 736 -738 0
296 -53 62 736 738 0
296 53 -62 -736 -738 0
296 53 62 -736 738 0
296 -53 62 -736 -738 0
296 53 62 736 -738 0
296 -53 -62 -736 738 0
296 53 -62 736 738 0
296 -9 -10 944 -946 0
296 -9 10 944 946 0
296 9 -10 -944 -946 0
296 9 10 -944 946 0
296 -9 10 -944 -946 0
296 9 10 944 -946 0
296 -9 -10 -944 946 0
296 9 -10 944 946 0
296 -113 -117 1046 -1048 0
296 -113 117 1046 1048 0
296 113 -117 -1046 -1048 0
296 113 117 -1046 1048 0
296 -113 117 -1046 -1048 0
296 113 117 1046 -1048 0
296 -113 -117 -1046 1048 0
296 113 -117 1046 1048 0
296 -52 -61 731 -733 0
296 -52 61 731 733 0
296 52 -61 -731 -733 0
296 52 61 -731 733 0
296 -52 61 -731 -733 0
296 52 61 731 -733 0
296 -52 -61 -731 733 0
296 52 -61 731 733 0
296 -161 -179 556 -558 0
296 -161 179 556 558 0
296 161 -179 -556 -558 0
296 161 179 -556 558 0
296 -161 179 -556 -558 0
296 161 179 556 -558 0
296 -161 -179 -556 558 0
296 161 -179 556 558 0
296 -26 -29 920 -922 0
296 -26 29 920 922 0
296 26 -29 -920 -922 0
296 26 29 -920 922 0
296 -26 29 -920 -922 0
296 26 29 920 -922 0
296 -26 -29 -920 922 0
296 26 -29 920 922 0
296 -115 -116 1064 -1066 0
296 -115 116 1064 1066 0
296 115 -116 -1064 -1066 0
296 115 116 -1064 1066 0
296 -115 116 -1064 -1066 0
296 115 116 1064 -1066 0
296 -115 -116 -1064 1066 0
296 115 -116 1064 1066 0
296 -124 -125 1050 -1052 0
296 -124 125 1050 1052 0
296 124 -125 -1050 -1052 0
296 124 125 -1050 1052 0
296 -124 125 -1050 -1052 0
296 124 125 1050 -1052 0
296 -124 -125 -1050 1052 0
296 124 -125 1050 1052 0
296 -140 -141 1054 -1056 0
296 -140 141 1054 1056 0
296 140 -141 -1054 -1056 0
296 140 141 -1054 1056 0
296 -140 141 -1054 -1056 0
296 140 141 1054 -1056 0
296 -140 -141 -1054 1056 0
296 140 -141 1054 1056 0
296 27 -52 -53 -877 0
296 27 -52 53 877 0
296 -27 52 -53 -877 0
296 -27 52 53 877 0
296 -27 -52 53 -877 0
296 27 52 53 -877 0
296 -27 -52 -53 877 0
296 27 52 -53 877 0
296 22 -23 -51 -727 0
296 22 -23 51 727 0
296 -22 23 -51 -727 0
296 -22 23 51 727 0
296 -22 -23 51 -727 0
296 22 23 51 -727 0
296 -22 -23 -51 727 0
296 22 23 -51 727 0
296 -112 -113 997 -999 0
296 -112 113 997 999 0
296 112 -113 -997 -999 0
296 112 113 -997 999 0
296 -112 113 -997 -999 0
296 112 113 997 -999 0
296 -112 -113 -997 999 0
296 112 -113 997 999 0
296 -150 -151 1123 -1125 0
296 -150 151 1123 1125 0
296 150 -151 -1123 -1125 0
296 150 151 -1123 1125 0
296 -150 151 -1123 -1125 0
296 150 151 1123 -1125 0
296 -150 -151 -1123 1125 0
296 150 -151 1123 1125 0
296 111 -113 -114 -1064 0
296 111 -113 114 1064 0
296 -111 113 -114 -1064 0
296 -111 113 114 1064 0
296 -111 -113 114 -1064 0
296 111 113 114 -1064 0
296 -111 -113 -114 1064 0
296 111 113 -114 1064 0
296 -148 -150 1057 -1059 0
296 -148 150 1057 1059 0
296 148 -150 -1057 -1059 0
296 148 150 -1057 1059 0
296 -148 150 -1057 -1059 0
296 148 150 1057 -1059 0
296 -148 -150 -1057 1059 0
296 148 -150 1057 1059 0
296 -116 -136 1000 -1002 0
296 -116 136 1000 1002 0
296 116 -136 -1000 -1002 0
296 116 136 -1000 1002 0
296 -116 136 -1000 -1002 0
296 116 136 1000 -1002 0
296 -116 -136 -1000 1002 0
296 116 -136 1000 1002 0
296 -49 -58 716 -718 0
296 -49 58 716 718 0
296 49 -58 -716 -718 0
296 49 58 -716 718 0
296 -49 58 -716 -718 0
296 49 58 716 -718 0
296 -49 -58 -716 718 0
296 49 -58 716 718 0
296 -123 -124 1066 -1068 0
296 -123 124 1066 1068 0
296 123 -124 -1066 -1068 0
296 123 124 -1066 1068 0
296 -123 124 -1066 -1068 0
296 123 124 1066 -1068 0
296 -123 -124 -1066 1068 0
296 123 -124 1066 1068 0
296 -159 -168 501 -503 0
296 -159 168 501 503 0
296 159 -168 -501 -503 0
296 159 168 -501 503 0
296 -159 168 -501 -503 0
296 159 168 501 -503 0
296 -159 -168 -501 503 0
296 159 -168 501 503 0
296 -139 -140 1003 -1005 0
296 -139 140 1003 1005 0
296 139 -140 -1003 -1005 0
296 139 140 -1003 1005 0
296 -139 140 -1003 -1005 0
296 139 140 1003 -1005 0
296 -139 -140 -1003 1005 0
296 139 -140 1003 1005 0
296 -136 -139 1070 -1072 0
296 -136 139 1070 1072 0
296 136 -139 -1070 -1072 0
296 136 139 -1070 1072 0
296 -136 139 -1070 -1072 0
296 136 139 1070 -1072 0
296 -136 -139 -1070 1072 0
296 136 -139 1070 1072 0
296 -151 -164 1074 -1076 0
296 -151 164 1074 1076 0
296 151 -164 -1074 -1076 0
296 151 164 -1074 1076 0
296 -151 164 -1074 -1076 0
296 151 164 1074 -1076 0
296 -151 -164 -1074 1076 0
296 151 -164 1074 1076 0
296 -162 -180 561 -563 0
296 -162 180 561 563 0
296 162 -180 -561 -563 0
296 162 180 -561 563 0
296 -162 180 -561 -563 0
296 162 180 561 -563 0
296 -162 -180 -561 563 0
296 162 -180 561 563 0
296 -118 -119 1082 -1084 0
296 -118 119 1082 1084 0
296 118 -119 -1082 -1084 0
296 118 119 -1082 1084 0
296 -118 119 -1082 -1084 0
296 118 119 1082 -1084 0
296 -118 -119 -1082 1084 0
296 118 -119 1082 1084 0
296 -120 -123 1084 -1086 0
296 -120 123 1084 1086 0
296 120 -123 -1084 -1086 0
296 120 123 -1084 1086 0
296 -120 123 -1084 -1086 0
296 120 123 1084 -1086 0
296 -120 -123 -1084 1086 0
296 120 -123 1084 1086 0
296 -124 -125 1086 -1088 0
296 -124 125 1086 1088 0
296 124 -125 -1086 -1088 0
296 124 125 -1086 1088 0
296 -124 125 -1086 -1088 0
296 124 125 1086 -1088 0
296 -124 -125 -1086 1088 0
296 124 -125 1086 1088 0
296 26 -27 -46 -702 0
296 26 -27 46 702 0
296 -26 27 -46 -702 0
296 -26 27 46 702 0
296 -26 -27 46 -702 0
296 26 27 46 -702 0
296 -26 -27 -46 702 0
296 26 27 -46 702 0
296 25 -50 -51 -867 0
296 25 -50 51 867 0
296 -25 50 -51 -867 0
296 -25 50 51 867 0
296 -25 -50 51 -867 0
296 25 50 51 -867 0
296 -25 -50 -51 867 0
296 25 50 -51 867 0
296 -16 -18 979 -981 0
296 -16 18 979 981 0
296 16 -18 -979 -981 0
296 16 18 -979 981 0
296 -16 18 -979 -981 0
296 16 18 979 -981 0
296 -16 -18 -979 981 0
296 16 -18 979 981 0
296 -45 -63 696 -698 0
296 -45 63 696 698 0
296 45 -63 -696 -698 0
296 45 63 -696 698 0
296 -45 63 -696 -698 0
296 45 63 696 -698 0
296 -45 -63 -696 698 0
296 45 -63 696 698 0
296 -46 -48 991 -993 0
296 -46 48 991 993 0
296 46 -48 -991 -993 0
296 46 48 -991 993 0
296 -46 48 -991 -993 0
296 46 48 991 -993 0
296 -46 -48 -991 993 0
296 46 -48 991 993 0
296 -139 -140 1094 -1096 0
296 -139 140 1094 1096 0
296 139 -140 -1094 -1096 0
296 139 140 -1094 1096 0
296 -139 140 -1094 -1096 0
296 139 140 1094 -1096 0
296 -139 -140 -1094 1096 0
296 139 -140 1094 1096 0
296 -131 -132 1089 -1091 0
296 -131 132 1089 1091 0
296 131 -132 -1089 -1091 0
296 131 132 -1089 1091 0
296 -131 132 -1089 -1091 0
296 131 132 1089 -1091 0
296 -131 -132 -1089 1091 0
296 131 -132 1089 1091 0
296 -44 -62 691 -693 0
296 -44 62 691 693 0
296 44 -62 -691 -693 0
296 44 62 -691 693 0
296 -44 62 -691 -693 0
296 44 62 691 -693 0
296 -44 -62 -691 693 0
296 44 -62 691 693 0
296 -134 -136 1092 -1094 0
296 -134 136 1092 1094 0
296 134 -136 -1092 -1094 0
296 134 136 -1092 1094 0
296 -134 136 -1092 -1094 0
296 134 136 1092 -1094 0
296 -134 -136 -1092 1094 0
296 134 -136 1092 1094 0
296 -145 -149 1098 -1100 0
296 -145 149 1098 1100 0
296 145 -149 -1098 -1100 0
296 145 149 -1098 1100 0
296 -145 149 -1098 -1100 0
296 145 149 1098 -1100 0
296 -145 -149 -1098 1100 0
296 145 -149 1098 1100 0
296 -159 -163 1102 -1104 0
296 -159 163 1102 1104 0
296 159 -163 -1102 -1104 0
296 159 163 -1102 1104 0
296 -159 163 -1102 -1104 0
296 159 163 1102 -1104 0
296 -159 -163 -1102 1104 0
296 159 -163 1102 1104 0
296 131 -137 -146 -437 0
296 131 -137 146 437 0
296 -131 137 -146 -437 0
296 -131 137 146 437 0
296 -131 -137 146 -437 0
296 131 137 146 -437 0
296 -131 -137 -146 437 0
296 131 137 -146 437 0
296 -160 -178 551 -553 0
296 -160 178 551 553 0
296 160 -178 -551 -553 0
296 160 178 -551 553 0
296 -160 178 -551 -553 0
296 160 178 551 -553 0
296 -160 -178 -551 553 0
296 160 -178 551 553 0
296 -40 -41 989 -991 0
296 -40 41 989 991 0
296 40 -41 -989 -991 0
296 40 41 -989 991 0
296 -40 41 -989 -991 0
296 40 41 989 -991 0
296 -40 -41 -989 991 0
296 40 -41 989 991 0
296 -116 -120 1109 -1111 0
296 -116 120 1109 1111 0
296 116 -120 -1109 -1111 0
296 116 120 -1109 1111 0
296 -116 120 -1109 -1111 0
296 116 120 1109 -1111 0
296 -116 -120 -1109 1111 0
296 116 -120 1109 1111 0
296 14 -15 -43 -687 0
296 14 -15 43 687 0
296 -14 15 -43 -687 0
296 -14 15 43 687 0
296 -14 -15 43 -687 0
296 14 15 43 -687 0
296 -14 -15 -43 687 0
296 14 15 -43 687 0
296 -133 -134 1114 -1116 0
296 -133 134 1114 1116 0
296 133 -134 -1114 -1116 0
296 133 134 -1114 1116 0
296 -133 134 -1114 -1116 0
296 133 134 1114 -1116 0
296 -133 -134 -1114 1116 0
296 133 -134 1114 1116 0
296 -122 -126 1111 -1113 0
296 -122 126 1111 1113 0
296 122 -126 -1111 -1113 0
296 122 126 -1111 1113 0
296 -122 126 -1111 -1113 0
296 122 126 1111 -1113 0
296 -122 -126 -1111 1113 0
296 122 -126 1111 1113 0
296 -42 -60 681 -683 0
296 -42 60 681 683 0
296 42 -60 -681 -683 0
296 42 60 -681 683 0
296 -42 60 -681 -683 0
296 42 60 681 -683 0
296 -42 -60 -681 683 0
296 42 -60 681 683 0
296 -135 -136 1116 -1118 0
296 -135 136 1116 1118 0
296 135 -136 -1116 -1118 0
296 135 136 -1116 1118 0
296 -135 136 -1116 -1118 0
296 135 136 1116 -1118 0
296 -135 -136 -1116 1118 0
296 135 -136 1116 1118 0
296 143 -149 -158 -497 0
296 143 -149 158 497 0
296 -143 149 -158 -497 0
296 -143 149 158 497 0
296 -143 -149 158 -497 0
296 143 149 158 -497 0
296 -143 -149 -158 497 0
296 143 149 -158 497 0
296 142 -148 -157 -492 0
296 142 -148 157 492 0
296 -142 148 -157 -492 0
296 -142 148 157 492 0
296 -142 -148 157 -492 0
296 142 148 157 -492 0
296 -142 -148 -157 492 0
296 142 148 -157 492 0
296 -139 -141 1118 -1120 0
296 -139 141 1118 1120 0
296 139 -141 -1118 -1120 0
296 139 141 -1118 1120 0
296 -139 141 -1118 -1120 0
296 139 141 1118 -1120 0
296 -139 -141 -1118 1120 0
296 139 -141 1118 1120 0
296 -160 -164 1126 -1128 0
296 -160 164 1126 1128 0
296 160 -164 -1126 -1128 0
296 160 164 -1126 1128 0
296 -160 164 -1126 -1128 0
296 160 164 1126 -1128 0
296 -160 -164 -1126 1128 0
296 160 -164 1126 1128 0
296 -27 -31 984 -986 0
296 -27 31 984 986 0
296 27 -31 -984 -986 0
296 27 31 -984 986 0
296 -27 31 -984 -986 0
296 27 31 984 -986 0
296 -27 -31 -984 986 0
296 27 -31 984 986 0
296 -34 -35 987 -989 0
296 -34 35 987 989 0
296 34 -35 -987 -989 0
296 34 35 -987 989 0
296 -34 35 -987 -989 0
296 34 35 987 -989 0
296 -34 -35 -987 989 0
296 34 -35 987 989 0
296 109 -118 -157 -567 0
296 109 -118 157 567 0
296 -109 118 -157 -567 0
296 -109 118 157 567 0
296 -109 -118 157 -567 0
296 109 118 157 -567 0
296 -109 -118 -157 567 0
296 109 118 -157 567 0
296 110 -119 -158 -572 0
296 110 -119 158 572 0
296 -110 119 -158 -572 0
296 -110 119 158 572 0
296 -110 -119 158 -572 0
296 110 119 158 -572 0
296 -110 -119 -158 572 0
296 110 119 -158 572 0
296 11 -12 -40 -672 0
296 11 -12 40 672 0
296 -11 12 -40 -672 0
296 -11 12 40 672 0
296 -11 -12 40 -672 0
296 11 12 40 -672 0
296 -11 -12 -40 672 0
296 11 12 -40 672 0
296 120 -135 -144 -427 0
296 120 -135 144 427 0
296 -120 135 -144 -427 0
296 -120 135 144 427 0
296 -120 -135 144 -427 0
296 120 135 144 -427 0
296 -120 -135 -144 427 0
296 120 135 -144 427 0
296 130 -136 -145 -432 0
296 130 -136 145 432 0
296 -130 136 -145 -432 0
296 -130 136 145 432 0
296 -130 -136 145 -432 0
296 130 136 145 -432 0
296 -130 -136 -145 432 0
296 130 136 -145 432 0
296 -156 -165 486 -488 0
296 -156 165 486 488 0
296 156 -165 -486 -488 0
296 156 165 -486 488 0
296 -156 165 -486 -488 0
296 156 165 486 -488 0
296 -156 -165 -486 488 0
296 156 -165 486 488 0
296 111 -120 -159 -577 0
296 111 -120 159 577 0
296 -111 120 -159 -577 0
296 -111 120 159 577 0
296 -111 -120 159 -577 0
296 111 120 159 -577 0
296 -111 -120 -159 577 0
296 111 120 -159 577 0
296 -38 -56 661 -663 0
296 -38 56 661 663 0
296 38 -56 -661 -663 0
296 38 56 -661 663 0
296 -38 56 -661 -663 0
296 38 56 661 -663 0
296 -38 -56 -661 663 0
296 38 -56 661 663 0
296 112 -121 -160 -582 0
296 112 -121 160 582 0
296 -112 121 -160 -582 0
296 -112 121 160 582 0
296 -112 -121 160 -582 0
296 112 121 160 -582 0
296 -112 -121 -160 582 0
296 112 121 -160 582 0
296 -47 -64 972 -974 0
296 -47 64 972 974 0
296 47 -64 -972 -974 0
296 47 64 -972 974 0
296 -47 64 -972 -974 0
296 47 64 972 -974 0
296 -47 -64 -972 974 0
296 47 -64 972 974 0
296 1 -2 -10 -978 0
296 1 -2 10 978 0
296 -1 2 -10 -978 0
296 -1 2 10 978 0
296 -1 -2 10 -978 0
296 1 2 10 -978 0
296 -1 -2 -10 978 0
296 1 2 -10 978 0
296 113 -122 -161 -587 0
296 113 -122 161 587 0
296 -113 122 -161 -587 0
296 -113 122 161 587 0
296 -113 -122 161 -587 0
296 113 122 161 -587 0
296 -113 -122 -161 587 0
296 113 122 -161 587 0
296 -155 -164 481 -483 0
296 -155 164 481 483 0
296 155 -164 -481 -483 0
296 155 164 -481 483 0
296 -155 164 -481 -483 0
296 155 164 481 -483 0
296 -155 -164 -481 483 0
296 155 -164 481 483 0
296 -125 -126 1068 -1070 0
296 -125 126 1068 1070 0
296 125 -126 -1068 -1070 0
296 125 126 -1068 1070 0
296 -125 126 -1068 -1070 0
296 125 126 1068 -1070 0
296 -125 -126 -1068 1070 0
296 125 -126 1068 1070 0
296 7 -8 -36 -652 0
296 7 -8 36 652 0
296 -7 8 -36 -652 0
296 -7 8 36 652 0
296 -7 -8 36 -652 0
296 7 8 36 -652 0
296 -7 -8 -36 652 0
296 7 8 -36 652 0
296 114 -123 -162 -592 0
296 114 -123 162 592 0
296 -114 123 -162 -592 0
296 -114 123 162 592 0
296 -114 -123 162 -592 0
296 114 123 162 -592 0
296 -114 -123 -162 592 0
296 114 123 -162 592 0
296 -32 -34 968 -970 0
296 -32 34 968 970 0
296 32 -34 -968 -970 0
296 32 34 -968 970 0
296 -32 34 -968 -970 0
296 32 34 968 -970 0
296 -32 -34 -968 970 0
296 32 -34 968 970 0
296 -114 -115 1107 -1109 0
296 -114 115 1107 1109 0
296 114 -115 -1107 -1109 0
296 114 115 -1107 1109 0
296 -114 115 -1107 -1109 0
296 114 115 1107 -1109 0
296 -114 -115 -1107 1109 0
296 114 -115 1107 1109 0
296 -35 -59 646 -648 0
296 -35 59 646 648 0
296 35 -59 -646 -648 0
296 35 59 -646 648 0
296 -35 59 -646 -648 0
296 35 59 646 -648 0
296 -35 -59 -646 648 0
296 35 -59 646 648 0
296 -154 -187 596 -598 0
296 -154 187 596 598 0
296 154 -187 -596 -598 0
296 154 187 -596 598 0
296 -154 187 -596 -598 0
296 154 187 596 -598 0
296 -154 -187 -596 598 0
296 154 -187 596 598 0
296 116 -125 -155 -602 0
296 116 -125 155 602 0
296 -116 125 -155 -602 0
296 -116 125 155 602 0
296 -116 -125 155 -602 0
296 116 125 155 -602 0
296 -116 -125 -155 602 0
296 116 125 -155 602 0
296 -16 -17 963 -965 0
296 -16 17 963 965 0
296 16 -17 -963 -965 0
296 16 17 -963 965 0
296 -16 17 -963 -965 0
296 16 17 963 -965 0
296 -16 -17 -963 965 0
296 16 -17 963 965 0
296 117 -126 -156 -607 0
296 117 -126 156 607 0
296 -117 126 -156 -607 0
296 -117 126 156 607 0
296 -117 -126 156 -607 0
296 117 126 156 -607 0
296 -117 -126 -156 607 0
296 117 126 -156 607 0
296 -17 -18 947 -949 0
296 -17 18 947 949 0
296 17 -18 -947 -949 0
296 17 18 -947 949 0
296 -17 18 -947 -949 0
296 17 18 947 -949 0
296 -17 -18 -947 949 0
296 17 -18 947 949 0
296 -26 -31 966 -968 0
296 -26 31 966 968 0
296 26 -31 -966 -968 0
296 26 31 -966 968 0
296 -26 31 -966 -968 0
296 26 31 966 -968 0
296 -26 -31 -966 968 0
296 26 -31 966 968 0
296 8 -9 -28 -612 0
296 8 -9 28 612 0
296 -8 9 -28 -612 0
296 -8 9 28 612 0
296 -8 -9 28 -612 0
296 8 9 28 -612 0
296 -8 -9 -28 612 0
296 8 9 -28 612 0
296 -47 -55 958 -960 0
296 -47 55 958 960 0
296 47 -55 -958 -960 0
296 47 55 -958 960 0
296 -47 55 -958 -960 0
296 47 55 958 -960 0
296 -47 -55 -958 960 0
296 47 -55 958 960 0
296 3 -4 -32 -632 0
296 3 -4 32 632 0
296 -3 4 -32 -632 0
296 -3 4 32 632 0
296 -3 -4 32 -632 0
296 3 4 32 -632 0
296 -3 -4 -32 632 0
296 3 4 -32 632 0
296 -151 -157 1100 -1102 0
296 -151 157 1100 1102 0
296 151 -157 -1100 -1102 0
296 151 157 -1100 1102 0
296 -151 157 -1100 -1102 0
296 151 157 1100 -1102 0
296 -151 -157 -1100 1102 0
296 151 -157 1100 1102 0
296 -29 -62 616 -618 0
296 -29 62 616 618 0
296 29 -62 -616 -618 0
296 29 62 -616 618 0
296 -29 62 -616 -618 0
296 29 62 616 -618 0
296 -29 -62 -616 618 0
296 29 -62 616 618 0
296 1 -2 -30 -622 0
296 1 -2 30 622 0
296 -1 2 -30 -622 0
296 -1 2 30 622 0
296 -1 -2 30 -622 0
296 1 2 30 -622 0
296 -1 -2 -30 622 0
296 1 2 -30 622 0
296 -48 -85 851 -853 0
296 -48 85 851 853 0
296 48 -85 -851 -853 0
296 48 85 -851 853 0
296 -48 85 -851 -853 0
296 48 85 851 -853 0
296 -48 -85 -851 853 0
296 48 -85 851 853 0
296 -26 -31 952 -954 0
296 -26 31 952 954 0
296 26 -31 -952 -954 0
296 26 31 -952 954 0
296 -26 31 -952 -954 0
296 26 31 952 -954 0
296 -26 -31 -952 954 0
296 26 -31 952 954 0
296 2 -3 -31 -627 0
296 2 -3 31 627 0
296 -2 3 -31 -627 0
296 -2 3 31 627 0
296 -2 -3 31 -627 0
296 2 3 31 -627 0
296 -2 -3 -31 627 0
296 2 3 -31 627 0
296 -37 -39 955 -957 0
296 -37 39 955 957 0
296 37 -39 -955 -957 0
296 37 39 -955 957 0
296 -37 39 -955 -957 0
296 37 39 955 -957 0
296 -37 -39 -955 957 0
296 37 -39 955 957 0
296 139 -145 -154 -477 0
296 139 -145 154 477 0
296 -139 145 -154 -477 0
296 -139 145 154 477 0
296 -139 -145 154 -477 0
296 139 145 154 -477 0
296 -139 -145 -154 477 0
296 139 145 -154 477 0
296 -33 -57 636 -638 0
296 -33 57 636 638 0
296 33 -57 -636 -638 0
296 33 57 -636 638 0
296 -33 57 -636 -638 0
296 33 57 636 -638 0
296 -33 -57 -636 638 0
296 33 -57 636 638 0
296 19 -53 -54 -837 0
296 19 -53 54 837 0
296 -19 53 -54 -837 0
296 -19 53 54 837 0
296 -19 -53 54 -837 0
296 19 53 54 -837 0
296 -19 -53 -54 837 0
296 19 53 -54 837 0
296 -151 -188 461 -463 0
296 -151 188 461 463 0
296 151 -188 -461 -463 0
296 151 188 -461 463 0
296 -151 188 -461 -463 0
296 151 188 461 -463 0
296 -151 -188 -461 463 0
296 151 -188 461 463 0
296 1 -2 -7 -944 0
296 1 -2 7 944 0
296 -1 2 -7 -944 0
296 -1 2 7 944 0
296 -1 -2 7 -944 0
296 1 2 7 -944 0
296 -1 -2 -7 944 0
296 1 2 -7 944 0
296 5 -6 -34 -642 0
296 5 -6 34 642 0
296 -5 6 -34 -642 0
296 -5 6 34 642 0
296 -5 -6 34 -642 0
296 5 6 34 -642 0
296 -5 -6 -34 642 0
296 5 6 -34 642 0
296 -159 -177 546 -548 0
296 -159 177 546 548 0
296 159 -177 -546 -548 0
296 159 177 -546 548 0
296 -159 177 -546 -548 0
296 159 177 546 -548 0
296 -159 -177 -546 548 0
296 159 -177 546 548 0
296 -141 -142 1096 -1098 0
296 -141 142 1096 1098 0
296 141 -142 -1096 -1098 0
296 141 142 -1096 1098 0
296 -141 142 -1096 -1098 0
296 141 142 1096 -1098 0
296 -141 -142 -1096 1098 0
296 141 -142 1096 1098 0
296 -152 -181 466 -468 0
296 -152 181 466 468 0
296 152 -181 -466 -468 0
296 152 181 -466 468 0
296 -152 181 -466 -468 0
296 152 181 466 -468 0
296 -152 -181 -466 468 0
296 152 -181 466 468 0
296 -153 -181 471 -473 0
296 -153 181 471 473 0
296 153 -181 -471 -473 0
296 153 181 -471 473 0
296 -153 181 -471 -473 0
296 153 181 471 -473 0
296 -153 -181 -471 473 0
296 153 -181 471 473 0
296 -17 -22 931 -933 0
296 -17 22 931 933 0
296 17 -22 -931 -933 0
296 17 22 -931 933 0
296 -17 22 -931 -933 0
296 17 22 931 -933 0
296 -17 -22 -931 933 0
296 17 -22 931 933 0
296 17 -18 -37 -657 0
296 17 -18 37 657 0
296 -17 18 -37 -657 0
296 -17 18 37 657 0
296 -17 -18 37 -657 0
296 17 18 37 -657 0
296 -17 -18 -37 657 0
296 17 18 -37 657 0
296 -37 -38 936 -938 0
296 -37 38 936 938 0
296 37 -38 -936 -938 0
296 37 38 -936 938 0
296 -37 38 -936 -938 0
296 37 38 936 -938 0
296 -37 -38 -936 938 0
296 37 -38 936 938 0
296 10 -11 -39 -667 0
296 10 -11 39 667 0
296 -10 11 -39 -667 0
296 -10 11 39 667 0
296 -10 -11 39 -667 0
296 10 11 39 -667 0
296 -10 -11 -39 667 0
296 10 11 -39 667 0
296 -47 -84 846 -848 0
296 -47 84 846 848 0
296 47 -84 -846 -848 0
296 47 84 -846 848 0
296 -47 84 -846 -848 0
296 47 84 846 -848 0
296 -47 -84 -846 848 0
296 47 -84 846 848 0
296 -41 -59 676 -678 0
296 -41 59 676 678 0
296 41 -59 -676 -678 0
296 41 59 -676 678 0
296 -41 59 -676 -678 0
296 41 59 676 -678 0
296 -41 -59 -676 678 0
296 41 -59 676 678 0
296 112 -118 -127 -342 0
296 112 -118 127 342 0
296 -112 118 -127 -342 0
296 -112 118 127 342 0
296 -112 -118 127 -342 0
296 112 118 127 -342 0
296 -112 -118 -127 342 0
296 112 118 -127 342 0
296 -8 -10 929 -931 0
296 -8 10 929 931 0
296 8 -10 -929 -931 0
296 8 10 -929 931 0
296 -8 10 -929 -931 0
296 8 10 929 -931 0
296 -8 -10 -929 931 0
296 8 -10 929 931 0
296 113 -119 -128 -347 0
296 113 -119 128 347 0
296 -113 119 -128 -347 0
296 -113 119 128 347 0
296 -113 -119 128 -347 0
296 113 119 128 -347 0
296 -113 -119 -128 347 0
296 113 119 -128 347 0
296 20 -46 -54 -842 0
296 20 -46 54 842 0
296 -20 46 -54 -842 0
296 -20 46 54 842 0
296 -20 -46 54 -842 0
296 20 46 54 -842 0
296 -20 -46 -54 842 0
296 20 46 -54 842 0
296 114 -120 -129 -352 0
296 114 -120 129 352 0
296 -114 120 -129 -352 0
296 -114 120 129 352 0
296 -114 -120 129 -352 0
296 114 120 129 -352 0
296 -114 -120 -129 352 0
296 114 120 -129 352 0
296 -35 -47 923 -925 0
296 -35 47 923 925 0
296 35 -47 -923 -925 0
296 35 47 -923 925 0
296 -35 47 -923 -925 0
296 35 47 923 -925 0
296 -35 -47 -923 925 0
296 35 -47 923 925 0
296 19 -20 -48 -712 0
296 19 -20 48 712 0
296 -19 20 -48 -712 0
296 -19 20 48 712 0
296 -19 -20 48 -712 0
296 19 20 48 -712 0
296 -19 -20 -48 712 0
296 19 20 -48 712 0
296 19 -27 -47 -707 0
296 19 -27 47 707 0
296 -19 27 -47 -707 0
296 -19 27 47 707 0
296 -19 -27 47 -707 0
296 19 27 47 -707 0
296 -19 -27 -47 707 0
296 19 27 -47 707 0
296 115 -121 -130 -357 0
296 115 -121 130 357 0
296 -115 121 -130 -357 0
296 -115 121 130 357 0
296 -115 -121 130 -357 0
296 115 121 130 -357 0
296 -115 -121 -130 357 0
296 115 121 -130 357 0
296 -136 -139 1052 -1054 0
296 -136 139 1052 1054 0
296 136 -139 -1052 -1054 0
296 136 139 -1052 1054 0
296 -136 139 -1052 -1054 0
296 136 139 1052 -1054 0
296 -136 -139 -1052 1054 0
296 136 -139 1052 1054 0
296 -50 -59 721 -723 0
296 -50 59 721 723 0
296 50 -59 -721 -723 0
296 50 59 -721 723 0
296 -50 59 -721 -723 0
296 50 59 721 -723 0
296 -50 -59 -721 723 0
296 50 -59 721 723 0
296 116 -122 -131 -362 0
296 116 -122 131 362 0
296 -116 122 -131 -362 0
296 -116 122 131 362 0
296 -116 -122 131 -362 0
296 116 122 131 -362 0
296 -116 -122 -131 362 0
296 116 122 -131 362 0
296 -113 -117 1080 -1082 0
296 -113 117 1080 1082 0
296 113 -117 -1080 -1082 0
296 113 117 -1080 1082 0
296 -113 117 -1080 -1082 0
296 113 117 1080 -1082 0
296 -113 -117 -1080 1082 0
296 113 -117 1080 1082 0
296 -158 -176 541 -543 0
296 -158 176 541 543 0
296 158 -176 -541 -543 0
296 158 176 -541 543 0
296 -158 176 -541 -543 0
296 158 176 541 -543 0
296 -158 -176 -541 543 0
296 158 -176 541 543 0
296 -142 -179 416 -418 0
296 -142 179 416 418 0
296 142 -179 -416 -418 0
296 142 179 -416 418 0
296 -142 179 -416 -418 0
296 142 179 416 -418 0
296 -142 -179 -416 418 0
296 142 -179 416 418 0
296 117 -123 -132 -367 0
296 117 -123 132 367 0
296 -117 123 -132 -367 0
296 -117 123 132 367 0
296 -117 -123 132 -367 0
296 117 123 132 -367 0
296 -117 -123 -132 367 0
296 117 123 -132 367 0
296 109 -110 -111 -1080 0
296 109 -110 111 1080 0
296 -109 110 -111 -1080 0
296 -109 110 111 1080 0
296 -109 -110 111 -1080 0
296 109 110 111 -1080 0
296 -109 -110 -111 1080 0
296 109 110 -111 1080 0
296 1 -35 -36 -747 0
296 1 -35 36 747 0
296 -1 35 -36 -747 0
296 -1 35 36 747 0
296 -1 -35 36 -747 0
296 1 35 36 -747 0
296 -1 -35 -36 747 0
296 1 35 -36 747 0
296 109 -124 -133 -372 0
296 109 -124 133 372 0
296 -109 124 -133 -372 0
296 -109 124 133 372 0
296 -109 -124 133 -372 0
296 109 124 133 -372 0
296 -109 -124 -133 372 0
296 109 124 -133 372 0
296 -30 -67 761 -763 0
296 -30 67 761 763 0
296 30 -67 -761 -763 0
296 30 67 -761 763 0
296 -30 67 -761 -763 0
296 30 67 761 -763 0
296 -30 -67 -761 763 0
296 30 -67 761 763 0
296 2 -28 -36 -752 0
296 2 -28 36 752 0
296 -2 28 -36 -752 0
296 -2 28 36 752 0
296 -2 -28 36 -752 0
296 2 28 36 -752 0
296 -2 -28 -36 752 0
296 2 28 -36 752 0
296 110 -125 -134 -377 0
296 110 -125 134 377 0
296 -110 125 -134 -377 0
296 -110 125 134 377 0
296 -110 -125 134 -377 0
296 110 125 134 -377 0
296 -110 -125 -134 377 0
296 110 125 -134 377 0
296 111 -126 -135 -382 0
296 111 -126 135 382 0
296 -111 126 -135 -382 0
296 -111 126 135 382 0
296 -111 -126 135 -382 0
296 111 126 135 -382 0
296 -111 -126 -135 382 0
296 111 126 -135 382 0
296 -157 -175 536 -538 0
296 -157 175 536 538 0
296 157 -175 -536 -538 0
296 157 175 -536 538 0
296 -157 175 -536 -538 0
296 157 175 536 -538 0
296 -157 -175 -536 538 0
296 157 -175 536 538 0
296 9 -34 -35 -787 0
296 9 -34 35 787 0
296 -9 34 -35 -787 0
296 -9 34 35 787 0
296 -9 -34 35 -787 0
296 9 34 35 -787 0
296 -9 -34 -35 787 0
296 9 34 -35 787 0
296 -40 -77 811 -813 0
296 -40 77 811 813 0
296 40 -77 -811 -813 0
296 40 77 -811 813 0
296 -40 77 -811 -813 0
296 40 77 811 -813 0
296 -40 -77 -811 813 0
296 40 -77 811 813 0
296 -41 -78 816 -818 0
296 -41 78 816 818 0
296 41 -78 -816 -818 0
296 41 78 -816 818 0
296 -41 78 -816 -818 0
296 41 78 816 -818 0
296 -41 -78 -816 818 0
296 41 -78 816 818 0
296 6 -31 -32 -772 0
296 6 -31 32 772 0
296 -6 31 -32 -772 0
296 -6 31 32 772 0
296 -6 -31 32 -772 0
296 6 31 32 -772 0
296 -6 -31 -32 772 0
296 6 31 -32 772 0
296 -33 -70 776 -778 0
296 -33 70 776 778 0
296 33 -70 -776 -778 0
296 33 70 -776 778 0
296 -33 70 -776 -778 0
296 33 70 776 -778 0
296 -33 -70 -776 778 0
296 33 -70 776 778 0
296 -136 -173 386 -388 0
296 -136 173 386 388 0
296 136 -173 -386 -388 0
296 136 173 -386 388 0
296 -136 173 -386 -388 0
296 136 173 386 -388 0
296 -136 -173 -386 388 0
296 136 -173 386 388 0
296 -7 -10 881 -883 0
296 -7 10 881 883 0
296 7 -10 -881 -883 0
296 7 10 -881 883 0
296 -7 10 -881 -883 0
296 7 10 881 -883 0
296 -7 -10 -881 883 0
296 7 -10 881 883 0
296 -34 -71 781 -783 0
296 -34 71 781 783 0
296 34 -71 -781 -783 0
296 34 71 -781 783 0
296 -34 71 -781 -783 0
296 34 71 781 -783 0
296 -34 -71 -781 783 0
296 34 -71 781 783 0
296 122 -128 -137 -392 0
296 122 -128 137 392 0
296 -122 128 -137 -392 0
296 -122 128 137 392 0
296 -122 -128 137 -392 0
296 122 128 137 -392 0
296 -122 -128 -137 392 0
296 122 128 -137 392 0
296 -140 -177 406 -408 0
296 -140 177 406 408 0
296 140 -177 -406 -408 0
296 140 177 -406 408 0
296 -140 177 -406 -408 0
296 140 177 406 -408 0
296 -140 -177 -406 408 0
296 140 -177 406 408 0
296 -156 -174 531 -533 0
296 -156 174 531 533 0
296 156 -174 -531 -533 0
296 156 174 -531 533 0
296 -156 174 -531 -533 0
296 156 174 531 -533 0
296 -156 -174 -531 533 0
296 156 -174 531 533 0
296 10 -44 -45 -792 0
296 10 -44 45 792 0
296 -10 44 -45 -792 0
296 -10 44 45 792 0
296 -10 -44 45 -792 0
296 10 44 45 -792 0
296 -10 -44 -45 792 0
296 10 44 -45 792 0
296 11 -37 -45 -797 0
296 11 -37 45 797 0
296 -11 37 -45 -797 0
296 -11 37 45 797 0
296 -11 -37 45 -797 0
296 11 37 45 -797 0
296 -11 -37 -45 797 0
296 11 37 -45 797 0
296 -138 -175 396 -398 0
296 -138 175 396 398 0
296 138 -175 -396 -398 0
296 138 175 -396 398 0
296 -138 175 -396 -398 0
296 138 175 396 -398 0
296 -138 -175 -396 398 0
296 138 -175 396 398 0
296 -139 -176 401 -403 0
296 -139 176 401 403 0
296 139 -176 -401 -403 0
296 139 176 -401 403 0
296 -139 176 -401 -403 0
296 139 176 401 -403 0
296 -139 -176 -401 403 0
296 139 -176 401 403 0
296 -38 -75 801 -803 0
296 -38 75 801 803 0
296 38 -75 -801 -803 0
296 38 75 -801 803 0
296 -38 75 -801 -803 0
296 38 75 801 -803 0
296 -38 -75 -801 803 0
296 38 -75 801 803 0
296 -39 -76 806 -808 0
296 -39 76 806 808 0
296 39 -76 -806 -808 0
296 39 76 -806 808 0
296 -39 76 -806 -808 0
296 39 76 806 -808 0
296 -39 -76 -806 808 0
296 39 -76 806 808 0
296 -42 -79 821 -823 0
296 -42 79 821 823 0
296 42 -79 -821 -823 0
296 42 79 -821 823 0
296 -42 79 -821 -823 0
296 42 79 821 -823 0
296 -42 -79 -821 823 0
296 42 -79 821 823 0
296 -122 -123 1048 -1050 0
296 -122 123 1048 1050 0
296 122 -123 -1048 -1050 0
296 122 123 -1048 1050 0
296 -122 123 -1048 -1050 0
296 122 123 1048 -1050 0
296 -122 -123 -1048 1050 0
296 122 -123 1048 1050 0
296 126 -132 -141 -412 0
296 126 -132 141 412 0
296 -126 132 -141 -412 0
296 -126 132 141 412 0
296 -126 -132 141 -412 0
296 126 132 141 -412 0
296 -126 -132 -141 412 0
296 126 132 -141 412 0
296 110 -149 -155 -527 0
296 110 -149 155 527 0
296 -110 149 -155 -527 0
296 -110 149 155 527 0
296 -110 -149 155 -527 0
296 110 149 155 -527 0
296 -110 -149 -155 527 0
296 110 149 -155 527 0
296 -44 -81 831 -833 0
296 -44 81 831 833 0
296 44 -81 -831 -833 0
296 44 81 -831 833 0
296 -44 81 -831 -833 0
296 44 81 831 -833 0
296 -44 -81 -831 833 0
296 44 -81 831 833 0
296 119 -134 -143 -422 0
296 119 -134 143 422 0
296 -119 134 -143 -422 0
296 -119 134 143 422 0
296 -119 -134 143 -422 0
296 119 134 143 -422 0
296 -119 -134 -143 422 0
296 119 134 -143 422 0
296 109 -110 -111 -1046 0
296 109 -110 111 1046 0
296 -109 110 -111 -1046 0
296 -109 110 111 1046 0
296 -109 -110 111 -1046 0
296 109 110 111 -1046 0
296 -109 -110 -111 1046 0
296 109 110 -111 1046 0
296 109 -148 -154 -522 0
296 109 -148 154 522 0
296 -109 148 -154 -522 0
296 -109 148 154 522 0
296 -109 -148 154 -522 0
296 109 148 154 -522 0
296 -109 -148 -154 522 0
296 109 148 -154 522 0
296 23 -48 -49 -857 0
296 23 -48 49 857 0
296 -23 48 -49 -857 0
296 -23 48 49 857 0
296 -23 -48 49 -857 0
296 23 48 49 -857 0
296 -23 -48 -49 857 0
296 23 48 -49 857 0
296 24 -49 -50 -862 0
296 24 -49 50 862 0
296 -24 49 -50 -862 0
296 -24 49 50 862 0
296 -24 -49 50 -862 0
296 24 49 50 -862 0
296 -24 -49 -50 862 0
296 24 49 -50 862 0
296 -150 -151 1040 -1042 0
296 -150 151 1040 1042 0
296 150 -151 -1040 -1042 0
296 150 151 -1040 1042 0
296 -150 151 -1040 -1042 0
296 150 151 1040 -1042 0
296 -150 -151 -1040 1042 0
296 150 -151 1040 1042 0
296 -126 -145 1036 -1038 0
296 -126 145 1036 1038 0
296 126 -145 -1036 -1038 0
296 126 145 -1036 1038 0
296 -126 145 -1036 -1038 0
296 126 145 1036 -1038 0
296 -126 -145 -1036 1038 0
296 126 -145 1036 1038 0
296 -8 -20 917 -919 0
296 -8 20 917 919 0
296 8 -20 -917 -919 0
296 8 20 -917 919 0
296 -8 20 -917 -919 0
296 8 20 917 -919 0
296 -8 -20 -917 919 0
296 8 -20 917 919 0
296 132 -138 -147 -442 0
296 132 -138 147 442 0
296 -132 138 -147 -442 0
296 -132 138 147 442 0
296 -132 -138 147 -442 0
296 132 138 147 -442 0
296 -132 -138 -147 442 0
296 132 138 -147 442 0
296 -31 -34 886 -888 0
296 -31 34 886 888 0
296 31 -34 -886 -888 0
296 31 34 -886 888 0
296 -31 34 -886 -888 0
296 31 34 886 -888 0
296 -31 -34 -886 888 0
296 31 -34 886 888 0
296 -16 -28 884 -886 0
296 -16 28 884 886 0
296 16 -28 -884 -886 0
296 16 28 -884 886 0
296 -16 28 -884 -886 0
296 16 28 884 -886 0
296 -16 -28 -884 886 0
296 16 -28 884 886 0
296 133 -139 -148 -447 0
296 133 -139 148 447 0
296 -133 139 -148 -447 0
296 -133 139 148 447 0
296 -133 -139 148 -447 0
296 133 139 148 -447 0
296 -133 -139 -148 447 0
296 133 139 -148 447 0
296 2 -5 -8 -894 0
296 2 -5 8 894 0
296 -2 5 -8 -894 0
296 -2 5 8 894 0
296 -2 -5 8 -894 0
296 2 5 8 -894 0
296 -2 -5 -8 894 0
296 2 5 -8 894 0
296 -11 -14 894 -896 0
296 -11 14 894 896 0
296 11 -14 -894 -896 0
296 11 14 -894 896 0
296 -11 14 -894 -896 0
296 11 14 894 -896 0
296 -11 -14 -894 896 0
296 11 -14 894 896 0
296 -22 -25 907 -909 0
296 -22 25 907 909 0
296 22 -25 -907 -909 0
296 22 25 -907 909 0
296 -22 25 -907 -909 0
296 22 25 907 -909 0
296 -22 -25 -907 909 0
296 22 -25 907 909 0
296 -122 -124 1022 -1024 0
296 -122 124 1022 1024 0
296 122 -124 -1022 -1024 0
296 122 124 -1022 1024 0
296 -122 124 -1022 -1024 0
296 122 124 1022 -1024 0
296 -122 -124 -1022 1024 0
296 122 -124 1022 1024 0
296 -160 -169 506 -508 0
296 -160 169 506 508 0
296 160 -169 -506 -508 0
296 160 169 -506 508 0
296 -160 169 -506 -508 0
296 160 169 506 -508 0
296 -160 -169 -506 508 0
296 160 -169 506 508 0
296 -114 -115 1010 -1012 0
296 -114 115 1010 1012 0
296 114 -115 -1010 -1012 0
296 114 115 -1010 1012 0
296 -114 115 -1010 -1012 0
296 114 115 1010 -1012 0
296 -114 -115 -1010 1012 0
296 114 -115 1010 1012 0
296 -29 -32 897 -899 0
296 -29 32 897 899 0
296 29 -32 -897 -899 0
296 29 32 -897 899 0
296 -29 32 -897 -899 0
296 29 32 897 -899 0
296 -29 -32 -897 899 0
296 29 -32 897 899 0
296 -136 -138 1013 -1015 0
296 -136 138 1013 1015 0
296 136 -138 -1013 -1015 0
296 136 138 -1013 1015 0
296 -136 138 -1013 -1015 0
296 136 138 1013 -1015 0
296 -136 -138 -1013 1015 0
296 136 -138 1013 1015 0
296 -38 -41 900 -902 0
296 -38 41 900 902 0
296 38 -41 -900 -902 0
296 38 41 -900 902 0
296 -38 41 -900 -902 0
296 38 41 900 -902 0
296 -38 -41 -900 902 0
296 38 -41 900 902 0
296 1 -4 -7 -906 0
296 1 -4 7 906 0
296 -1 4 -7 -906 0
296 -1 4 7 906 0
296 -1 -4 7 -906 0
296 1 4 7 -906 0
296 -1 -4 -7 906 0
296 1 4 -7 906 0
296 -31 -34 910 -912 0
296 -31 34 910 912 0
296 31 -34 -910 -912 0
296 31 34 -910 912 0
296 -31 34 -910 -912 0
296 31 34 910 -912 0
296 -31 -34 -910 912 0
296 31 -34 910 912 0
296 137 -152 -161 -512 0
296 137 -152 161 512 0
296 -137 152 -161 -512 0
296 -137 152 161 512 0
296 -137 -152 161 -512 0
296 137 152 161 -512 0
296 -137 -152 -161 512 0
296 137 152 -161 512 0
296 -150 -187 456 -458 0
296 -150 187 456 458 0
296 150 -187 -456 -458 0
296 150 187 -456 458 0
296 -150 187 -456 -458 0
296 150 187 456 -458 0
296 -150 -187 -456 458 0
296 150 -187 456 458 0
296 -46 -49 912 -914 0
296 -46 49 912 914 0
296 46 -49 -912 -914 0
296 46 49 -912 914 0
296 -46 49 -912 -914 0
296 46 49 912 -914 0
296 -46 -49 -912 914 0
296 46 -49 912 914 0
296 -25 -31 934 -936 0
296 -25 31 934 936 0
296 25 -31 -934 -936 0
296 25 31 -934 936 0
296 -25 31 -934 -936 0
296 25 31 934 -936 0
296 -25 -31 -934 936 0
296 25 -31 934 936 0
296 -46 -55 938 -940 0
296 -46 55 938 940 0
296 46 -55 -938 -940 0
296 46 55 -938 940 0
296 -46 55 -938 -940 0
296 46 55 938 -940 0
296 -46 -55 -938 940 0
296 46 -55 938 940 0
296 -24 -25 950 -952 0
296 -24 25 950 952 0
296 24 -25 -950 -952 0
296 24 25 -950 952 0
296 -24 25 -950 -952 0
296 24 25 950 -952 0
296 -24 -25 -950 952 0
296 24 -25 950 952 0
296 -149 -186 451 -453 0
296 -149 186 451 453 0
296 149 -186 -451 -453 0
296 149 186 -451 453 0
296 -149 186 -451 -453 0
296 149 186 451 -453 0
296 -149 -186 -451 453 0
296 149 -186 451 453 0
296 -139 -141 1015 -1017 0
296 -139 141 1015 1017 0
296 139 -141 -1015 -1017 0
296 139 141 -1015 1017 0
296 -139 141 -1015 -1017 0
296 139 141 1015 -1017 0
296 -139 -141 -1015 1017 0
296 139 -141 1015 1017 0
296 -40 -46 970 -972 0
296 -40 46 970 972 0
296 40 -46 -970 -972 0
296 40 46 -970 972 0
296 -40 46 -970 -972 0
296 40 46 970 -972 0
296 -40 -46 -970 972 0
296 40 -46 970 972 0
296 118 -119 -121 -1022 0
296 118 -119 121 1022 0
296 -118 119 -121 -1022 0
296 -118 119 121 1022 0
296 -118 -119 121 -1022 0
296 118 119 121 -1022 0
296 -118 -119 -121 1022 0
296 118 119 -121 1022 0
296 -20 -26 982 -984 0
296 -20 26 982 984 0
296 20 -26 -982 -984 0
296 20 26 -982 984 0
296 -20 26 -982 -984 0
296 20 26 982 -984 0
296 -20 -26 -982 984 0
296 20 -26 982 984 0
296 -141 -149 1072 -1074 0
296 -141 149 1072 1074 0
296 141 -149 -1072 -1074 0
296 141 149 -1072 1074 0
296 -141 149 -1072 -1074 0
296 141 149 1072 -1074 0
296 -141 -149 -1072 1074 0
296 141 -149 1072 1074 0
296 -37 -40 888 -890 0
296 -37 40 888 890 0
296 37 -40 -888 -890 0
296 37 40 -888 890 0
296 -37 40 -888 -890 0
296 37 40 888 -890 0
296 -37 -40 -888 890 0
296 37 -40 888 890 0
296 109 -111 -112 -1010 0
296 109 -111 112 1010 0
296 -109 111 -112 -1010 0
296 -109 111 112 1010 0
296 -109 -111 112 -1010 0
296 109 111 112 -1010 0
296 -109 -111 -112 1010 0
296 109 111 -112 1010 0
