p wcnf 3432 10282 628
1 -477 0
1 -478 0
1 -479 0
1 -480 0
1 -481 0
1 -482 0
1 -483 0
1 -484 0
1 -485 0
1 -486 0
1 -487 0
1 -488 0
1 -489 0
1 -490 0
1 -491 0
1 -492 0
1 -493 0
1 -494 0
1 -495 0
1 -496 0
1 -497 0
1 -498 0
1 -499 0
1 -500 0
1 -501 0
1 -502 0
1 -503 0
1 -504 0
1 -505 0
1 -506 0
1 -507 0
1 -508 0
1 -509 0
1 -510 0
1 -511 0
1 -512 0
1 -513 0
1 -514 0
1 -515 0
1 -516 0
1 -517 0
1 -518 0
1 -519 0
1 -520 0
1 -521 0
1 -522 0
1 -523 0
1 -524 0
1 -525 0
1 -526 0
1 -527 0
1 -528 0
1 -529 0
1 -530 0
1 -531 0
1 -532 0
1 -533 0
1 -534 0
1 -535 0
1 -536 0
1 -537 0
1 -538 0
1 -539 0
1 -540 0
1 -541 0
1 -542 0
1 -543 0
1 -544 0
1 -545 0
1 -546 0
1 -547 0
1 -548 0
1 -549 0
1 -550 0
1 -551 0
1 -552 0
1 -553 0
1 -554 0
1 -555 0
1 -556 0
1 -557 0
1 -558 0
1 -559 0
1 -560 0
1 -561 0
1 -562 0
1 -563 0
1 -564 0
1 -565 0
1 -566 0
1 -567 0
1 -568 0
1 -569 0
1 -570 0
1 -571 0
1 -572 0
1 -573 0
1 -574 0
1 -575 0
1 -576 0
1 -577 0
1 -578 0
1 -579 0
1 -580 0
1 -581 0
1 -582 0
1 -583 0
1 -584 0
1 -585 0
1 -586 0
1 -587 0
1 -588 0
1 -589 0
1 -590 0
1 -591 0
1 -592 0
1 -593 0
1 -594 0
1 -595 0
1 -596 0
1 -597 0
1 -598 0
1 -599 0
1 -600 0
1 -601 0
1 -602 0
1 -603 0
1 -604 0
1 -605 0
1 -606 0
1 -607 0
1 -608 0
1 -609 0
1 -610 0
1 -611 0
1 -612 0
1 -613 0
1 -614 0
1 -615 0
1 -616 0
1 -617 0
1 -618 0
1 -619 0
1 -620 0
1 -621 0
1 -622 0
1 -623 0
1 -624 0
1 -625 0
1 -626 0
1 -627 0
1 -628 0
1 -629 0
1 -630 0
1 -631 0
1 -632 0
1 -633 0
1 -634 0
1 -635 0
1 -636 0
1 -637 0
1 -638 0
1 -639 0
1 -640 0
1 -641 0
1 -642 0
1 -643 0
1 -644 0
1 -645 0
1 -646 0
1 -647 0
1 -648 0
1 -649 0
1 -650 0
1 -651 0
1 -652 0
1 -653 0
1 -654 0
1 -655 0
1 -656 0
1 -657 0
1 -658 0
1 -659 0
1 -660 0
1 -661 0
1 -662 0
1 -663 0
1 -664 0
1 -665 0
1 -666 0
1 -667 0
1 -668 0
1 -669 0
1 -670 0
1 -671 0
1 -672 0
1 -673 0
1 -674 0
1 -675 0
1 -676 0
1 -677 0
1 -678 0
1 -679 0
1 -680 0
1 -681 0
1 -682 0
1 -683 0
1 -684 0
1 -685 0
1 -686 0
1 -687 0
1 -688 0
1 -689 0
1 -690 0
1 -691 0
1 -692 0
1 -693 0
1 -694 0
1 -695 0
1 -696 0
1 -697 0
1 -698 0
1 -699 0
1 -700 0
1 -701 0
1 -702 0
1 -703 0
1 -704 0
1 -705 0
1 -706 0
1 -707 0
1 -708 0
1 -709 0
1 -710 0
1 -711 0
1 -712 0
1 -713 0
1 -714 0
628 -419 -806 -807 0
628 419 806 -807 0
628 -419 806 807 0
628 419 -806 807 0
628 -242 -274 -810 0
628 242 274 -810 0
628 242 -274 810 0
628 -242 274 810 0
628 -414 -820 -821 0
628 414 820 -821 0
628 -414 820 821 0
628 414 -820 821 0
628 -415 -827 -828 0
628 415 827 -828 0
628 -415 827 828 0
628 415 -827 828 0
628 -349 -832 -833 0
628 349 832 -833 0
628 -349 832 833 0
628 349 -832 833 0
628 -350 -839 -840 0
628 350 839 -840 0
628 -350 839 840 0
628 350 -839 840 0
628 -240 -279 -845 0
628 240 279 -845 0
628 240 -279 845 0
628 -240 279 845 0
628 -415 -855 -856 0
628 415 855 -856 0
628 -415 855 856 0
628 415 -855 856 0
628 -353 -860 -861 0
628 353 860 -861 0
628 -353 860 861 0
628 353 -860 861 0
628 -417 -869 -870 0
628 417 869 -870 0
628 -417 869 870 0
628 417 -869 870 0
628 -418 -876 -877 0
628 418 876 -877 0
628 -418 876 877 0
628 418 -876 877 0
628 -419 -883 -884 0
628 419 883 -884 0
628 -419 883 884 0
628 419 -883 884 0
628 -357 -888 -889 0
628 357 888 -889 0
628 -357 888 889 0
628 357 -888 889 0
628 -247 -286 -894 0
628 247 286 -894 0
628 247 -286 894 0
628 -247 286 894 0
628 -420 -904 -905 0
628 420 904 -905 0
628 -420 904 905 0
628 420 -904 905 0
628 -256 -288 -908 0
628 256 288 -908 0
628 256 -288 908 0
628 -256 288 908 0
628 -415 -918 -919 0
628 415 918 -919 0
628 -415 918 919 0
628 415 -918 919 0
628 -362 -923 -924 0
628 362 923 -924 0
628 -362 923 924 0
628 362 -923 924 0
628 -363 -930 -931 0
628 363 930 -931 0
628 -363 930 931 0
628 363 -930 931 0
628 -418 -939 -940 0
628 418 939 -940 0
628 -418 939 940 0
628 418 -939 940 0
628 -358 -944 -945 0
628 358 944 -945 0
628 -358 944 945 0
628 358 -944 945 0
628 -262 -301 -950 0
628 262 301 -950 0
628 262 -301 950 0
628 -262 301 950 0
628 -414 -960 -961 0
628 414 960 -961 0
628 -414 960 961 0
628 414 -960 961 0
628 -415 -967 -968 0
628 415 967 -968 0
628 -415 967 968 0
628 415 -967 968 0
628 -265 -297 -971 0
628 265 297 -971 0
628 265 -297 971 0
628 -265 297 971 0
628 -266 -298 -978 0
628 266 298 -978 0
628 266 -298 978 0
628 -266 298 978 0
628 -418 -988 -989 0
628 418 988 -989 0
628 -418 988 989 0
628 418 -988 989 0
628 -261 -300 -992 0
628 261 300 -992 0
628 261 -300 992 0
628 -261 300 992 0
628 -269 -308 -999 0
628 269 308 -999 0
628 269 -308 999 0
628 -269 308 999 0
628 -270 -302 -1006 0
628 270 302 -1006 0
628 270 -302 1006 0
628 -270 302 1006 0
628 -420 -1016 -1017 0
628 420 1016 -1017 0
628 -420 1016 1017 0
628 420 -1016 1017 0
628 -414 -1023 -1024 0
628 414 1023 -1024 0
628 -414 1023 1024 0
628 414 -1023 1024 0
628 -415 -1030 -1031 0
628 415 1030 -1031 0
628 -415 1030 1031 0
628 415 -1030 1031 0
628 -378 -1035 -1036 0
628 378 1035 -1036 0
628 -378 1035 1036 0
628 378 -1035 1036 0
628 -417 -1044 -1045 0
628 417 1044 -1045 0
628 -417 1044 1045 0
628 417 -1044 1045 0
628 -239 -279 -1048 0
628 239 279 -1048 0
628 239 -279 1048 0
628 -239 279 1048 0
628 -441 -1058 -1059 0
628 441 1058 -1059 0
628 -441 1058 1059 0
628 441 -1058 1059 0
628 -346 -1063 -1064 0
628 346 1063 -1064 0
628 -346 1063 1064 0
628 346 -1063 1064 0
628 -436 -1072 -1073 0
628 436 1072 -1073 0
628 -436 1072 1073 0
628 436 -1072 1073 0
628 -243 -276 -1076 0
628 243 276 -1076 0
628 243 -276 1076 0
628 -243 276 1076 0
628 -438 -1086 -1087 0
628 438 1086 -1087 0
628 -438 1086 1087 0
628 438 -1086 1087 0
628 -350 -1091 -1092 0
628 350 1091 -1092 0
628 -350 1091 1092 0
628 350 -1091 1092 0
628 -436 -1100 -1101 0
628 436 1100 -1101 0
628 -436 1100 1101 0
628 436 -1100 1101 0
628 -247 -287 -1104 0
628 247 287 -1104 0
628 247 -287 1104 0
628 -247 287 1104 0
628 -438 -1114 -1115 0
628 438 1114 -1115 0
628 -438 1114 1115 0
628 438 -1114 1115 0
628 -249 -282 -1118 0
628 249 282 -1118 0
628 249 -282 1118 0
628 -249 282 1118 0
628 -440 -1128 -1129 0
628 440 1128 -1129 0
628 -440 1128 1129 0
628 440 -1128 1129 0
628 -441 -1135 -1136 0
628 441 1135 -1136 0
628 -441 1135 1136 0
628 441 -1135 1136 0
628 -252 -285 -1139 0
628 252 285 -1139 0
628 252 -285 1139 0
628 -252 285 1139 0
628 -253 -293 -1146 0
628 253 293 -1146 0
628 253 -293 1146 0
628 -253 293 1146 0
628 -359 -1154 -1155 0
628 359 1154 -1155 0
628 -359 1154 1155 0
628 359 -1154 1155 0
628 -436 -1163 -1164 0
628 436 1163 -1164 0
628 -436 1163 1164 0
628 436 -1163 1164 0
628 -361 -1168 -1169 0
628 361 1168 -1169 0
628 -361 1168 1169 0
628 361 -1168 1169 0
628 -257 -290 -1174 0
628 257 290 -1174 0
628 257 -290 1174 0
628 -257 290 1174 0
628 -363 -1182 -1183 0
628 363 1182 -1183 0
628 -363 1182 1183 0
628 363 -1182 1183 0
628 -440 -1191 -1192 0
628 440 1191 -1192 0
628 -440 1191 1192 0
628 440 -1191 1192 0
628 -365 -1196 -1197 0
628 365 1196 -1197 0
628 -365 1196 1197 0
628 365 -1196 1197 0
628 -435 -1205 -1206 0
628 435 1205 -1206 0
628 -435 1205 1206 0
628 435 -1205 1206 0
628 -367 -1210 -1211 0
628 367 1210 -1211 0
628 -367 1210 1211 0
628 367 -1210 1211 0
628 -263 -296 -1216 0
628 263 296 -1216 0
628 263 -296 1216 0
628 -263 296 1216 0
628 -438 -1226 -1227 0
628 438 1226 -1227 0
628 -438 1226 1227 0
628 438 -1226 1227 0
628 -370 -1231 -1232 0
628 370 1231 -1232 0
628 -370 1231 1232 0
628 370 -1231 1232 0
628 -371 -1238 -1239 0
628 371 1238 -1239 0
628 -371 1238 1239 0
628 371 -1238 1239 0
628 -267 -307 -1244 0
628 267 307 -1244 0
628 267 -307 1244 0
628 -267 307 1244 0
628 -268 -308 -1251 0
628 268 308 -1251 0
628 268 -308 1251 0
628 -268 308 1251 0
628 -374 -1259 -1260 0
628 374 1259 -1260 0
628 -374 1259 1260 0
628 374 -1259 1260 0
628 -375 -1266 -1267 0
628 375 1266 -1267 0
628 -375 1266 1267 0
628 375 -1266 1267 0
628 -436 -1275 -1276 0
628 436 1275 -1276 0
628 -436 1275 1276 0
628 436 -1275 1276 0
628 -437 -1282 -1283 0
628 437 1282 -1283 0
628 -437 1282 1283 0
628 437 -1282 1283 0
628 -378 -1287 -1288 0
628 378 1287 -1288 0
628 -378 1287 1288 0
628 378 -1287 1288 0
628 -245 -279 -1293 0
628 245 279 -1293 0
628 245 -279 1293 0
628 -245 279 1293 0
628 -239 -280 -1300 0
628 239 280 -1300 0
628 239 -280 1300 0
628 -239 280 1300 0
628 -456 -1310 -1311 0
628 456 1310 -1311 0
628 -456 1310 1311 0
628 456 -1310 1311 0
628 -241 -275 -1314 0
628 241 275 -1314 0
628 241 -275 1314 0
628 -241 275 1314 0
628 -344 -1322 -1323 0
628 344 1322 -1323 0
628 -344 1322 1323 0
628 344 -1322 1323 0
628 -243 -277 -1328 0
628 243 277 -1328 0
628 243 -277 1328 0
628 -243 277 1328 0
628 -460 -1338 -1339 0
628 460 1338 -1339 0
628 -460 1338 1339 0
628 460 -1338 1339 0
628 -252 -286 -1342 0
628 252 286 -1342 0
628 252 -286 1342 0
628 -252 286 1342 0
628 -246 -287 -1349 0
628 246 287 -1349 0
628 246 -287 1349 0
628 -246 287 1349 0
628 -459 -1359 -1360 0
628 459 1359 -1360 0
628 -459 1359 1360 0
628 459 -1359 1360 0
628 -460 -1366 -1367 0
628 460 1366 -1367 0
628 -460 1366 1367 0
628 460 -1366 1367 0
628 -351 -1371 -1372 0
628 351 1371 -1372 0
628 -351 1371 1372 0
628 351 -1371 1372 0
628 -462 -1380 -1381 0
628 462 1380 -1381 0
628 -462 1380 1381 0
628 462 -1380 1381 0
628 -456 -1387 -1388 0
628 456 1387 -1388 0
628 -456 1387 1388 0
628 456 -1387 1388 0
628 -259 -293 -1391 0
628 259 293 -1391 0
628 259 -293 1391 0
628 -259 293 1391 0
628 -253 -294 -1398 0
628 253 294 -1398 0
628 253 -294 1398 0
628 -253 294 1398 0
628 -363 -1406 -1407 0
628 363 1406 -1407 0
628 -363 1406 1407 0
628 363 -1406 1407 0
628 -255 -289 -1412 0
628 255 289 -1412 0
628 255 -289 1412 0
628 -255 289 1412 0
628 -459 -1422 -1423 0
628 459 1422 -1423 0
628 -459 1422 1423 0
628 459 -1422 1423 0
628 -460 -1429 -1430 0
628 460 1429 -1430 0
628 -460 1429 1430 0
628 460 -1429 1430 0
628 -258 -292 -1433 0
628 258 292 -1433 0
628 258 -292 1433 0
628 -258 292 1433 0
628 -266 -300 -1440 0
628 266 300 -1440 0
628 266 -300 1440 0
628 -266 300 1440 0
628 -369 -1448 -1449 0
628 369 1448 -1449 0
628 -369 1448 1449 0
628 369 -1448 1449 0
628 -370 -1455 -1456 0
628 370 1455 -1456 0
628 -370 1455 1456 0
628 370 -1455 1456 0
628 -371 -1462 -1463 0
628 371 1462 -1463 0
628 -371 1462 1463 0
628 371 -1462 1463 0
628 -263 -297 -1468 0
628 263 297 -1468 0
628 263 -297 1468 0
628 -263 297 1468 0
628 -264 -298 -1475 0
628 264 298 -1475 0
628 264 -298 1475 0
628 -264 298 1475 0
628 -461 -1485 -1486 0
628 461 1485 -1486 0
628 -461 1485 1486 0
628 461 -1485 1486 0
628 -273 -307 -1489 0
628 273 307 -1489 0
628 273 -307 1489 0
628 -273 307 1489 0
628 -461 -1499 -1500 0
628 461 1499 -1500 0
628 -461 1499 1500 0
628 461 -1499 1500 0
628 -377 -1504 -1505 0
628 377 1504 -1505 0
628 -377 1504 1505 0
628 377 -1504 1505 0
628 -269 -303 -1510 0
628 269 303 -1510 0
628 269 -303 1510 0
628 -269 303 1510 0
628 -457 -1520 -1521 0
628 457 1520 -1521 0
628 -457 1520 1521 0
628 457 -1520 1521 0
628 -373 -1525 -1526 0
628 373 1525 -1526 0
628 -373 1525 1526 0
628 373 -1525 1526 0
628 -459 -1534 -1535 0
628 459 1534 -1535 0
628 -459 1534 1535 0
628 459 -1534 1535 0
628 -181 -1541 -1542 0
628 181 1541 -1542 0
628 -181 1541 1542 0
628 181 -1541 1542 0
628 -24 -1546 -1547 0
628 24 1546 -1547 0
628 -24 1546 1547 0
628 24 -1546 1547 0
628 -25 -1553 -1554 0
628 25 1553 -1554 0
628 -25 1553 1554 0
628 25 -1553 1554 0
628 -177 -1562 -1563 0
628 177 1562 -1563 0
628 -177 1562 1563 0
628 177 -1562 1563 0
628 -7 -11 -1566 0
628 7 11 -1566 0
628 7 -11 1566 0
628 -7 11 1566 0
628 -179 -1576 -1577 0
628 179 1576 -1577 0
628 -179 1576 1577 0
628 179 -1576 1577 0
628 -2 -13 -1580 0
628 2 13 -1580 0
628 2 -13 1580 0
628 -2 13 1580 0
628 -1 -13 -1587 0
628 1 13 -1587 0
628 1 -13 1587 0
628 -1 13 1587 0
628 -2 -14 -1594 0
628 2 14 -1594 0
628 2 -14 1594 0
628 -2 14 1594 0
628 -183 -1604 -1605 0
628 183 1604 -1605 0
628 -183 1604 1605 0
628 183 -1604 1605 0
628 -184 -1611 -1612 0
628 184 1611 -1612 0
628 -184 1611 1612 0
628 184 -1611 1612 0
628 -185 -1618 -1619 0
628 185 1618 -1619 0
628 -185 1618 1619 0
628 185 -1618 1619 0
628 -186 -1625 -1626 0
628 186 1625 -1626 0
628 -186 1625 1626 0
628 186 -1625 1626 0
628 -187 -1632 -1633 0
628 187 1632 -1633 0
628 -187 1632 1633 0
628 187 -1632 1633 0
628 -7 -13 -1636 0
628 7 13 -1636 0
628 7 -13 1636 0
628 -7 13 1636 0
628 -1 -14 -1643 0
628 1 14 -1643 0
628 1 -14 1643 0
628 -1 14 1643 0
628 -2 -8 -1650 0
628 2 8 -1650 0
628 2 -8 1650 0
628 -2 8 1650 0
628 -3 -9 -1657 0
628 3 9 -1657 0
628 3 -9 1657 0
628 -3 9 1657 0
628 -4 -10 -1664 0
628 4 10 -1664 0
628 4 -10 1664 0
628 -4 10 1664 0
628 -5 -11 -1671 0
628 5 11 -1671 0
628 5 -11 1671 0
628 -5 11 1671 0
628 -24 -1679 -1680 0
628 24 1679 -1680 0
628 -24 1679 1680 0
628 24 -1679 1680 0
628 -38 -49 -1685 0
628 38 49 -1685 0
628 38 -49 1685 0
628 -38 49 1685 0
628 -39 -43 -1692 0
628 39 43 -1692 0
628 39 -43 1692 0
628 -39 43 1692 0
628 -179 -1702 -1703 0
628 179 1702 -1703 0
628 -179 1702 1703 0
628 179 -1702 1703 0
628 -61 -1707 -1708 0
628 61 1707 -1708 0
628 -61 1707 1708 0
628 61 -1707 1708 0
628 -42 -46 -1713 0
628 42 46 -1713 0
628 42 -46 1713 0
628 -42 46 1713 0
628 -36 -47 -1720 0
628 36 47 -1720 0
628 36 -47 1720 0
628 -36 47 1720 0
628 -57 -1728 -1729 0
628 57 1728 -1729 0
628 -57 1728 1729 0
628 57 -1728 1729 0
628 -184 -1737 -1738 0
628 184 1737 -1738 0
628 -184 1737 1738 0
628 184 -1737 1738 0
628 -185 -1744 -1745 0
628 185 1744 -1745 0
628 -185 1744 1745 0
628 185 -1744 1745 0
628 -38 -43 -1748 0
628 38 43 -1748 0
628 38 -43 1748 0
628 -38 43 1748 0
628 -187 -1758 -1759 0
628 187 1758 -1759 0
628 -187 1758 1759 0
628 187 -1758 1759 0
628 -61 -1763 -1764 0
628 61 1763 -1764 0
628 -61 1763 1764 0
628 61 -1763 1764 0
628 -62 -1770 -1771 0
628 62 1770 -1771 0
628 -62 1770 1771 0
628 62 -1770 1771 0
628 -42 -47 -1776 0
628 42 47 -1776 0
628 42 -47 1776 0
628 -42 47 1776 0
628 -191 -1786 -1787 0
628 191 1786 -1787 0
628 -191 1786 1787 0
628 191 -1786 1787 0
628 -61 -1791 -1792 0
628 61 1791 -1792 0
628 -61 1791 1792 0
628 61 -1791 1792 0
628 -37 -43 -1797 0
628 37 43 -1797 0
628 37 -43 1797 0
628 -37 43 1797 0
628 -38 -44 -1804 0
628 38 44 -1804 0
628 38 -44 1804 0
628 -38 44 1804 0
628 -39 -45 -1811 0
628 39 45 -1811 0
628 39 -45 1811 0
628 -39 45 1811 0
628 -58 -1819 -1820 0
628 58 1819 -1820 0
628 -58 1819 1820 0
628 58 -1819 1820 0
628 -190 -1828 -1829 0
628 190 1828 -1829 0
628 -190 1828 1829 0
628 190 -1828 1829 0
628 -182 -1835 -1836 0
628 182 1835 -1836 0
628 -182 1835 1836 0
628 182 -1835 1836 0
628 -74 -78 -1839 0
628 74 78 -1839 0
628 74 -78 1839 0
628 -74 78 1839 0
628 -75 -79 -1846 0
628 75 79 -1846 0
628 75 -79 1846 0
628 -75 79 1846 0
628 -76 -80 -1853 0
628 76 80 -1853 0
628 76 -80 1853 0
628 -76 80 1853 0
628 -77 -81 -1860 0
628 77 81 -1860 0
628 77 -81 1860 0
628 -77 81 1860 0
628 -180 -1870 -1871 0
628 180 1870 -1871 0
628 -180 1870 1871 0
628 180 -1870 1871 0
628 -72 -83 -1874 0
628 72 83 -1874 0
628 72 -83 1874 0
628 -72 83 1874 0
628 -71 -83 -1881 0
628 71 83 -1881 0
628 71 -83 1881 0
628 -71 83 1881 0
628 -72 -84 -1888 0
628 72 84 -1888 0
628 72 -84 1888 0
628 -72 84 1888 0
628 -184 -1898 -1899 0
628 184 1898 -1899 0
628 -184 1898 1899 0
628 184 -1898 1899 0
628 -74 -79 -1902 0
628 74 79 -1902 0
628 74 -79 1902 0
628 -74 79 1902 0
628 -186 -1912 -1913 0
628 186 1912 -1913 0
628 -186 1912 1913 0
628 186 -1912 1913 0
628 -187 -1919 -1920 0
628 187 1919 -1920 0
628 -187 1919 1920 0
628 187 -1919 1920 0
628 -77 -82 -1923 0
628 77 82 -1923 0
628 77 -82 1923 0
628 -77 82 1923 0
628 -95 -1931 -1932 0
628 95 1931 -1932 0
628 -95 1931 1932 0
628 95 -1931 1932 0
628 -190 -1940 -1941 0
628 190 1940 -1941 0
628 -190 1940 1941 0
628 190 -1940 1941 0
628 -72 -78 -1944 0
628 72 78 -1944 0
628 72 -78 1944 0
628 -72 78 1944 0
628 -192 -1954 -1955 0
628 192 1954 -1955 0
628 -192 1954 1955 0
628 192 -1954 1955 0
628 -92 -1959 -1960 0
628 92 1959 -1960 0
628 -92 1959 1960 0
628 92 -1959 1960 0
628 -75 -81 -1965 0
628 75 81 -1965 0
628 75 -81 1965 0
628 -75 81 1965 0
628 -195 -1975 -1976 0
628 195 1975 -1976 0
628 -195 1975 1976 0
628 195 -1975 1976 0
628 -128 -1980 -1981 0
628 128 1980 -1981 0
628 -128 1980 1981 0
628 128 -1980 1981 0
628 -176 -1989 -1990 0
628 176 1989 -1990 0
628 -176 1989 1990 0
628 176 -1989 1990 0
628 -177 -1996 -1997 0
628 177 1996 -1997 0
628 -177 1996 1997 0
628 177 -1996 1997 0
628 -111 -115 -2000 0
628 111 115 -2000 0
628 111 -115 2000 0
628 -111 115 2000 0
628 -179 -2010 -2011 0
628 179 2010 -2011 0
628 -179 2010 2011 0
628 179 -2010 2011 0
628 -133 -2015 -2016 0
628 133 2015 -2016 0
628 -133 2015 2016 0
628 133 -2015 2016 0
628 -181 -2024 -2025 0
628 181 2024 -2025 0
628 -181 2024 2025 0
628 181 -2024 2025 0
628 -189 -2031 -2032 0
628 189 2031 -2032 0
628 -189 2031 2032 0
628 189 -2031 2032 0
628 -183 -2038 -2039 0
628 183 2038 -2039 0
628 -183 2038 2039 0
628 183 -2038 2039 0
628 -184 -2045 -2046 0
628 184 2045 -2046 0
628 -184 2045 2046 0
628 184 -2045 2046 0
628 -185 -2052 -2053 0
628 185 2052 -2053 0
628 -185 2052 2053 0
628 185 -2052 2053 0
628 -186 -2059 -2060 0
628 186 2059 -2060 0
628 -186 2059 2060 0
628 186 -2059 2060 0
628 -132 -2064 -2065 0
628 132 2064 -2065 0
628 -132 2064 2065 0
628 132 -2064 2065 0
628 -112 -117 -2070 0
628 112 117 -2070 0
628 112 -117 2070 0
628 -112 117 2070 0
628 -196 -2080 -2081 0
628 196 2080 -2081 0
628 -196 2080 2081 0
628 196 -2080 2081 0
628 -131 -2085 -2086 0
628 131 2085 -2086 0
628 -131 2085 2086 0
628 131 -2085 2086 0
628 -191 -2094 -2095 0
628 191 2094 -2095 0
628 -191 2094 2095 0
628 191 -2094 2095 0
628 -108 -114 -2098 0
628 108 114 -2098 0
628 108 -114 2098 0
628 -108 114 2098 0
628 -193 -2108 -2109 0
628 193 2108 -2109 0
628 -193 2108 2109 0
628 193 -2108 2109 0
628 -194 -2115 -2116 0
628 194 2115 -2116 0
628 -194 2115 2116 0
628 194 -2115 2116 0
628 -129 -2120 -2121 0
628 129 2120 -2121 0
628 -129 2120 2121 0
628 129 -2120 2121 0
628 -143 -154 -2126 0
628 143 154 -2126 0
628 143 -154 2126 0
628 -143 154 2126 0
628 -181 -2136 -2137 0
628 181 2136 -2137 0
628 -181 2136 2137 0
628 181 -2136 2137 0
628 -145 -149 -2140 0
628 145 149 -2140 0
628 145 -149 2140 0
628 -145 149 2140 0
628 -166 -2148 -2149 0
628 166 2148 -2149 0
628 -166 2148 2149 0
628 166 -2148 2149 0
628 -147 -151 -2154 0
628 147 151 -2154 0
628 147 -151 2154 0
628 -147 151 2154 0
628 -178 -2164 -2165 0
628 178 2164 -2165 0
628 -178 2164 2165 0
628 178 -2164 2165 0
628 -162 -2169 -2170 0
628 162 2169 -2170 0
628 -162 2169 2170 0
628 162 -2169 2170 0
628 -162 -2176 -2177 0
628 162 2176 -2177 0
628 -162 2176 2177 0
628 162 -2176 2177 0
628 -142 -154 -2182 0
628 142 154 -2182 0
628 142 -154 2182 0
628 -142 154 2182 0
628 -189 -2192 -2193 0
628 189 2192 -2193 0
628 -189 2192 2193 0
628 189 -2192 2193 0
628 -165 -2197 -2198 0
628 165 2197 -2198 0
628 -165 2197 2198 0
628 165 -2197 2198 0
628 -184 -2206 -2207 0
628 184 2206 -2207 0
628 -184 2206 2207 0
628 184 -2206 2207 0
628 -167 -2211 -2212 0
628 167 2211 -2212 0
628 -167 2211 2212 0
628 167 -2211 2212 0
628 -186 -2220 -2221 0
628 186 2220 -2221 0
628 -186 2220 2221 0
628 186 -2220 2221 0
628 -165 -2225 -2226 0
628 165 2225 -2226 0
628 -165 2225 2226 0
628 165 -2225 2226 0
628 -195 -2234 -2235 0
628 195 2234 -2235 0
628 -195 2234 2235 0
628 195 -2234 2235 0
628 -167 -2239 -2240 0
628 167 2239 -2240 0
628 -167 2239 2240 0
628 167 -2239 2240 0
628 -190 -2248 -2249 0
628 190 2248 -2249 0
628 -190 2248 2249 0
628 190 -2248 2249 0
628 -144 -150 -2252 0
628 144 150 -2252 0
628 144 -150 2252 0
628 -144 150 2252 0
628 -192 -2262 -2263 0
628 192 2262 -2263 0
628 -192 2262 2263 0
628 192 -2262 2263 0
628 -193 -2269 -2270 0
628 193 2269 -2270 0
628 -193 2269 2270 0
628 193 -2269 2270 0
628 1 2 3 4 5 6 7 8 9 10 11 12 13 14 15 16 17 18 19 20 21 22 23 24 25 26 27 28 29 30 31 32 33 34 35 36 37 38 39 40 41 42 43 44 45 46 47 48 49 50 51 52 53 54 55 56 57 58 59 60 61 62 63 64 65 66 67 68 69 70 71 72 73 74 75 76 77 78 79 80 81 82 83 84 85 86 87 88 89 90 91 92 93 94 95 96 97 98 99 100 101 102 103 104 105 106 107 108 109 110 111 112 113 114 115 116 117 118 119 120 121 122 123 124 125 126 127 128 129 130 131 132 133 134 135 136 137 138 139 140 141 142 143 144 145 146 147 148 149 150 151 152 153 154 155 156 157 158 159 160 161 162 163 164 165 166 167 168 169 170 171 172 173 174 175 176 177 178 179 180 181 182 183 184 185 186 187 188 189 190 191 192 193 194 195 196 197 198 199 200 201 202 203 204 205 206 207 208 209 210 211 212 213 214 215 216 217 218 219 220 221 222 223 224 225 226 227 228 229 230 231 232 233 234 235 236 237 238 239 240 241 242 243 244 245 246 247 248 249 250 251 252 253 254 255 256 257 258 259 260 261 262 263 264 265 266 267 268 269 270 271 272 273 274 275 276 277 278 279 280 281 282 283 284 285 286 287 288 289 290 291 292 293 294 295 296 297 298 299 300 301 302 303 304 305 306 307 308 309 310 311 312 313 314 315 316 317 318 319 320 321 322 323 324 325 326 327 328 329 330 331 332 333 334 335 336 337 338 339 340 341 342 343 344 345 346 347 348 349 350 351 352 353 354 355 356 357 358 359 360 361 362 363 364 365 366 367 368 369 370 371 372 373 374 375 376 377 378 379 380 381 382 383 384 385 386 387 388 389 390 391 392 393 394 395 396 397 398 399 400 401 402 403 404 405 406 407 408 409 410 411 412 413 414 415 416 417 418 419 420 421 422 423 424 425 426 427 428 429 430 431 432 433 434 435 436 437 438 439 440 441 442 443 444 445 446 447 448 449 450 451 452 453 454 455 456 457 458 459 460 461 462 463 464 465 466 467 468 469 470 471 472 473 474 475 476 0
628 -1 -2 -2273 0
628 1 2 -2273 0
628 1 -2 2273 0
628 -1 2 2273 0
628 -7 -2277 -2278 0
628 7 2277 -2278 0
628 -7 2277 2278 0
628 7 -2277 2278 0
628 -15 -16 -2301 0
628 15 16 -2301 0
628 15 -16 2301 0
628 -15 16 2301 0
628 -55 -2311 -2312 0
628 55 2311 -2312 0
628 -55 2311 2312 0
628 55 -2311 2312 0
628 -4 -2330 -2331 0
628 4 2330 -2331 0
628 -4 2330 2331 0
628 4 -2330 2331 0
628 -76 -2339 -2340 0
628 76 2339 -2340 0
628 -76 2339 2340 0
628 76 -2339 2340 0
628 -78 -2348 -2349 0
628 78 2348 -2349 0
628 -78 2348 2349 0
628 78 -2348 2349 0
628 -81 -2351 -2352 0
628 81 2351 -2352 0
628 -81 2351 2352 0
628 81 -2351 2352 0
628 -87 -2364 -2365 0
628 87 2364 -2365 0
628 -87 2364 2365 0
628 87 -2364 2365 0
628 -90 -2367 -2368 0
628 90 2367 -2368 0
628 -90 2367 2368 0
628 90 -2367 2368 0
628 -22 -23 -2371 0
628 22 23 -2371 0
628 22 -23 2371 0
628 -22 23 2371 0
628 -26 -2373 -2374 0
628 26 2373 -2374 0
628 -26 2373 2374 0
628 26 -2373 2374 0
628 -2 -3 -2397 0
628 2 3 -2397 0
628 2 -3 2397 0
628 -2 3 2397 0
628 -76 -2405 -2406 0
628 76 2405 -2406 0
628 -76 2405 2406 0
628 76 -2405 2406 0
628 -4 -41 -2427 0
628 4 41 -2427 0
628 4 -41 2427 0
628 -4 41 2427 0
628 -76 -2429 -2430 0
628 76 2429 -2430 0
628 -76 2429 2430 0
628 76 -2429 2430 0
628 -38 -2434 -2435 0
628 38 2434 -2435 0
628 -38 2434 2435 0
628 38 -2434 2435 0
628 -41 -2437 -2438 0
628 41 2437 -2438 0
628 -41 2437 2438 0
628 41 -2437 2438 0
628 -12 -2458 -2459 0
628 12 2458 -2459 0
628 -12 2458 2459 0
628 12 -2458 2459 0
628 -83 -2465 -2466 0
628 83 2465 -2466 0
628 -83 2465 2466 0
628 83 -2465 2466 0
628 -8 -9 -2475 0
628 8 9 -2475 0
628 8 -9 2475 0
628 -8 9 2475 0
628 -47 -2479 -2480 0
628 47 2479 -2480 0
628 -47 2479 2480 0
628 47 -2479 2480 0
628 -12 -43 -2493 0
628 12 43 -2493 0
628 12 -43 2493 0
628 -12 43 2493 0
628 -46 -2495 -2496 0
628 46 2495 -2496 0
628 -46 2495 2496 0
628 46 -2495 2496 0
628 -78 -2498 -2499 0
628 78 2498 -2499 0
628 -78 2498 2499 0
628 78 -2498 2499 0
628 -83 -2501 -2502 0
628 83 2501 -2502 0
628 -83 2501 2502 0
628 83 -2501 2502 0
628 -3 -5 -2527 0
628 3 5 -2527 0
628 3 -5 2527 0
628 -3 5 2527 0
628 -41 -2531 -2532 0
628 41 2531 -2532 0
628 -41 2531 2532 0
628 41 -2531 2532 0
628 -1 -2 -2539 0
628 1 2 -2539 0
628 1 -2 2539 0
628 -1 2 2539 0
628 -36 -2541 -2542 0
628 36 2541 -2542 0
628 -36 2541 2542 0
628 36 -2541 2542 0
628 -2 -3 -2551 0
628 2 3 -2551 0
628 2 -3 2551 0
628 -2 3 2551 0
628 -37 -2553 -2554 0
628 37 2553 -2554 0
628 -37 2553 2554 0
628 37 -2553 2554 0
628 -7 -2564 -2565 0
628 7 2564 -2565 0
628 -7 2564 2565 0
628 7 -2564 2565 0
628 -39 -2567 -2568 0
628 39 2567 -2568 0
628 -39 2567 2568 0
628 39 -2567 2568 0
628 -36 -2576 -2577 0
628 36 2576 -2577 0
628 -36 2576 2577 0
628 36 -2576 2577 0
628 -72 -2579 -2580 0
628 72 2579 -2580 0
628 -72 2579 2580 0
628 72 -2579 2580 0
628 -79 -2624 -2625 0
628 79 2624 -2625 0
628 -79 2624 2625 0
628 79 -2624 2625 0
628 -82 -2627 -2628 0
628 82 2627 -2628 0
628 -82 2627 2628 0
628 82 -2627 2628 0
628 -80 -2636 -2637 0
628 80 2636 -2637 0
628 -80 2636 2637 0
628 80 -2636 2637 0
628 -83 -2639 -2640 0
628 83 2639 -2640 0
628 -83 2639 2640 0
628 83 -2639 2640 0
628 -43 -2656 -2657 0
628 43 2656 -2657 0
628 -43 2656 2657 0
628 43 -2656 2657 0
628 -79 -2659 -2660 0
628 79 2659 -2660 0
628 -79 2659 2660 0
628 79 -2659 2660 0
628 -23 -25 -2687 0
628 23 25 -2687 0
628 23 -25 2687 0
628 -23 25 2687 0
628 -95 -2691 -2692 0
628 95 2691 -2692 0
628 -95 2691 2692 0
628 95 -2691 2692 0
628 -7 -9 -2697 0
628 7 9 -2697 0
628 7 -9 2697 0
628 -7 9 2697 0
628 -18 -2701 -2702 0
628 18 2701 -2702 0
628 -18 2701 2702 0
628 18 -2701 2702 0
628 -53 -2714 -2715 0
628 53 2714 -2715 0
628 -53 2714 2715 0
628 53 -2714 2715 0
628 -62 -2719 -2720 0
628 62 2719 -2720 0
628 -62 2719 2720 0
628 62 -2719 2720 0
628 -66 -2722 -2723 0
628 66 2722 -2723 0
628 -66 2722 2723 0
628 66 -2722 2723 0
628 -72 -2725 -2726 0
628 72 2725 -2726 0
628 -72 2725 2726 0
628 72 -2725 2726 0
628 -87 -2730 -2731 0
628 87 2730 -2731 0
628 -87 2730 2731 0
628 87 -2730 2731 0
628 -101 -2739 -2740 0
628 101 2739 -2740 0
628 -101 2739 2740 0
628 101 -2739 2740 0
628 -11 -2746 -2747 0
628 11 2746 -2747 0
628 -11 2746 2747 0
628 11 -2746 2747 0
628 -19 -2751 -2752 0
628 19 2751 -2752 0
628 -19 2751 2752 0
628 19 -2751 2752 0
628 -23 -2754 -2755 0
628 23 2754 -2755 0
628 -23 2754 2755 0
628 23 -2754 2755 0
628 -26 -2757 -2758 0
628 26 2757 -2758 0
628 -26 2757 2758 0
628 26 -2757 2758 0
628 -76 -2778 -2779 0
628 76 2778 -2779 0
628 -76 2778 2779 0
628 76 -2778 2779 0
628 -176 -2795 -2796 0
628 176 2795 -2796 0
628 -176 2795 2796 0
628 176 -2795 2796 0
628 -23 -2804 -2805 0
628 23 2804 -2805 0
628 -23 2804 2805 0
628 23 -2804 2805 0
628 -32 -2809 -2810 0
628 32 2809 -2810 0
628 -32 2809 2810 0
628 32 -2809 2810 0
628 -89 -2816 -2817 0
628 89 2816 -2817 0
628 -89 2816 2817 0
628 89 -2816 2817 0
628 -197 -2823 -2824 0
628 197 2823 -2824 0
628 -197 2823 2824 0
628 197 -2823 2824 0
628 -253 -2872 -2873 0
628 253 2872 -2873 0
628 -253 2872 2873 0
628 253 -2872 2873 0
628 -258 -2877 -2878 0
628 258 2877 -2878 0
628 -258 2877 2878 0
628 258 -2877 2878 0
628 -240 -241 -2893 0
628 240 241 -2893 0
628 240 -241 2893 0
628 -240 241 2893 0
628 -248 -2897 -2898 0
628 248 2897 -2898 0
628 -248 2897 2898 0
628 248 -2897 2898 0
628 -240 -249 -2905 0
628 240 249 -2905 0
628 240 -249 2905 0
628 -240 249 2905 0
628 -258 -2907 -2908 0
628 258 2907 -2908 0
628 -258 2907 2908 0
628 258 -2907 2908 0
628 -245 -2914 -2915 0
628 245 2914 -2915 0
628 -245 2914 2915 0
628 245 -2914 2915 0
628 -255 -2917 -2918 0
628 255 2917 -2918 0
628 -255 2917 2918 0
628 255 -2917 2918 0
628 -248 -2930 -2931 0
628 248 2930 -2931 0
628 -248 2930 2931 0
628 248 -2930 2931 0
628 -255 -2935 -2936 0
628 255 2935 -2936 0
628 -255 2935 2936 0
628 255 -2935 2936 0
628 -246 -2942 -2943 0
628 246 2942 -2943 0
628 -246 2942 2943 0
628 246 -2942 2943 0
628 -256 -2945 -2946 0
628 256 2945 -2946 0
628 -256 2945 2946 0
628 256 -2945 2946 0
628 -246 -2952 -2953 0
628 246 2952 -2953 0
628 -246 2952 2953 0
628 246 -2952 2953 0
628 -256 -2959 -2960 0
628 256 2959 -2960 0
628 -256 2959 2960 0
628 256 -2959 2960 0
628 -239 -240 -2963 0
628 239 240 -2963 0
628 239 -240 2963 0
628 -239 240 2963 0
628 -246 -2965 -2966 0
628 246 2965 -2966 0
628 -246 2965 2966 0
628 246 -2965 2966 0
628 -254 -2968 -2969 0
628 254 2968 -2969 0
628 -254 2968 2969 0
628 254 -2968 2969 0
628 -257 -2971 -2972 0
628 257 2971 -2972 0
628 -257 2971 2972 0
628 257 -2971 2972 0
628 -240 -241 -2975 0
628 240 241 -2975 0
628 240 -241 2975 0
628 -240 241 2975 0
628 -247 -2977 -2978 0
628 247 2977 -2978 0
628 -247 2977 2978 0
628 247 -2977 2978 0
628 -255 -2980 -2981 0
628 255 2980 -2981 0
628 -255 2980 2981 0
628 255 -2980 2981 0
628 -258 -2983 -2984 0
628 258 2983 -2984 0
628 -258 2983 2984 0
628 258 -2983 2984 0
628 -245 -3010 -3011 0
628 245 3010 -3011 0
628 -245 3010 3011 0
628 245 -3010 3011 0
628 -257 -3017 -3018 0
628 257 3017 -3018 0
628 -257 3017 3018 0
628 257 -3017 3018 0
628 -277 -3036 -3037 0
628 277 3036 -3037 0
628 -277 3036 3037 0
628 277 -3036 3037 0
628 -289 -3041 -3042 0
628 289 3041 -3042 0
628 -289 3041 3042 0
628 289 -3041 3042 0
628 -278 -3062 -3063 0
628 278 3062 -3063 0
628 -278 3062 3063 0
628 278 -3062 3063 0
628 -283 -3065 -3066 0
628 283 3065 -3066 0
628 -283 3065 3066 0
628 283 -3065 3066 0
628 -278 -3080 -3081 0
628 278 3080 -3081 0
628 -278 3080 3081 0
628 278 -3080 3081 0
628 -290 -3085 -3086 0
628 290 3085 -3086 0
628 -290 3085 3086 0
628 290 -3085 3086 0
628 -278 -281 -3097 0
628 278 281 -3097 0
628 278 -281 3097 0
628 -278 281 3097 0
628 -284 -3099 -3100 0
628 284 3099 -3100 0
628 -284 3099 3100 0
628 284 -3099 3100 0
628 -276 -278 -3119 0
628 276 278 -3119 0
628 276 -278 3119 0
628 -276 278 3119 0
628 -283 -3121 -3122 0
628 283 3121 -3122 0
628 -283 3121 3122 0
628 283 -3121 3122 0
628 -288 -3124 -3125 0
628 288 3124 -3125 0
628 -288 3124 3125 0
628 288 -3124 3125 0
628 -291 -3127 -3128 0
628 291 3127 -3128 0
628 -291 3127 3128 0
628 291 -3127 3128 0
628 -289 -3136 -3137 0
628 289 3136 -3137 0
628 -289 3136 3137 0
628 289 -3136 3137 0
628 -292 -3139 -3140 0
628 292 3139 -3140 0
628 -292 3139 3140 0
628 292 -3139 3140 0
628 -275 -276 -3143 0
628 275 276 -3143 0
628 275 -276 3143 0
628 -275 276 3143 0
628 -286 -3147 -3148 0
628 286 3147 -3148 0
628 -286 3147 3148 0
628 286 -3147 3148 0
628 -281 -3168 -3169 0
628 281 3168 -3169 0
628 -281 3168 3169 0
628 281 -3168 3169 0
628 -289 -3171 -3172 0
628 289 3171 -3172 0
628 -289 3171 3172 0
628 289 -3171 3172 0
628 -280 -3178 -3179 0
628 280 3178 -3179 0
628 -280 3178 3179 0
628 280 -3178 3179 0
628 -284 -3181 -3182 0
628 284 3181 -3182 0
628 -284 3181 3182 0
628 284 -3181 3182 0
628 -312 -3204 -3205 0
628 312 3204 -3205 0
628 -312 3204 3205 0
628 312 -3204 3205 0
628 -328 -3213 -3214 0
628 328 3213 -3214 0
628 -328 3213 3214 0
628 328 -3213 3214 0
628 -356 -3270 -3271 0
628 356 3270 -3271 0
628 -356 3270 3271 0
628 356 -3270 3271 0
628 -363 -3273 -3274 0
628 363 3273 -3274 0
628 -363 3273 3274 0
628 363 -3273 3274 0
628 -258 -3278 -3279 0
628 258 3278 -3279 0
628 -258 3278 3279 0
628 258 -3278 3279 0
628 -310 -3289 -3290 0
628 310 3289 -3290 0
628 -310 3289 3290 0
628 310 -3289 3290 0
628 -326 -3296 -3297 0
628 326 3296 -3297 0
628 -326 3296 3297 0
628 326 -3296 3297 0
628 -381 -3311 -3312 0
628 381 3311 -3312 0
628 -381 3311 3312 0
628 381 -3311 3312 0
628 -387 -3314 -3315 0
628 387 3314 -3315 0
628 -387 3314 3315 0
628 387 -3314 3315 0
628 -391 -3317 -3318 0
628 391 3317 -3318 0
628 -391 3317 3318 0
628 391 -3317 3318 0
628 -258 -3328 -3329 0
628 258 3328 -3329 0
628 -258 3328 3329 0
628 258 -3328 3329 0
628 -350 -3341 -3342 0
628 350 3341 -3342 0
628 -350 3341 3342 0
628 350 -3341 3342 0
628 -360 -3344 -3345 0
628 360 3344 -3345 0
628 -360 3344 3345 0
628 360 -3344 3345 0
628 -382 -3347 -3348 0
628 382 3347 -3348 0
628 -382 3347 3348 0
628 382 -3347 3348 0
628 -240 -242 -3353 0
628 240 242 -3353 0
628 240 -242 3353 0
628 -240 242 3353 0
628 -256 -3357 -3358 0
628 256 3357 -3358 0
628 -256 3357 3358 0
628 256 -3357 3358 0
628 -280 -3362 -3363 0
628 280 3362 -3363 0
628 -280 3362 3363 0
628 280 -3362 3363 0
628 -285 -3365 -3366 0
628 285 3365 -3366 0
628 -285 3365 3366 0
628 285 -3365 3366 0
628 -312 -3370 -3371 0
628 312 3370 -3371 0
628 -312 3370 3371 0
628 312 -3370 3371 0
628 -315 -3373 -3374 0
628 315 3373 -3374 0
628 -315 3373 3374 0
628 315 -3373 3374 0
628 -328 -3378 -3379 0
628 328 3378 -3379 0
628 -328 3378 3379 0
628 328 -3378 3379 0
628 -414 -3403 -3404 0
628 414 3403 -3404 0
628 -414 3403 3404 0
628 414 -3403 3404 0
628 -292 -3410 -3411 0
628 292 3410 -3411 0
628 -292 3410 3411 0
628 292 -3410 3411 0
628 -358 -3417 -3418 0
628 358 3417 -3418 0
628 -358 3417 3418 0
628 358 -3417 3418 0
628 -363 -3420 -3421 0
628 363 3420 -3421 0
628 -363 3420 3421 0
628 363 -3420 3421 0
628 -397 -3427 -3428 0
628 397 3427 -3428 0
628 -397 3427 3428 0
628 397 -3427 3428 0
628 715 716 717 718 719 720 721 722 723 724 725 726 727 728 729 730 731 732 733 734 735 736 737 738 739 740 741 742 743 744 745 746 747 748 749 750 751 752 753 754 755 756 757 758 759 760 761 762 763 764 765 766 767 768 769 770 771 772 773 774 775 776 777 778 779 780 781 782 783 784 785 786 787 788 789 790 791 792 793 794 795 796 797 798 799 800 801 802 0
628 1 239 -477 0
628 -1 477 0
628 -239 477 0
628 2 240 -478 0
628 -2 478 0
628 -240 478 0
628 3 241 -479 0
628 -3 479 0
628 -241 479 0
628 4 242 -480 0
628 -4 480 0
628 -242 480 0
628 5 243 -481 0
628 -5 481 0
628 -243 481 0
628 6 244 -482 0
628 -6 482 0
628 -244 482 0
628 7 245 -483 0
628 -7 483 0
628 -245 483 0
628 8 246 -484 0
628 -8 484 0
628 -246 484 0
628 9 247 -485 0
628 -9 485 0
628 -247 485 0
628 10 248 -486 0
628 -10 486 0
628 -248 486 0
628 11 249 -487 0
628 -11 487 0
628 -249 487 0
628 12 250 -488 0
628 -12 488 0
628 -250 488 0
628 13 251 -489 0
628 -13 489 0
628 -251 489 0
628 14 252 -490 0
628 -14 490 0
628 -252 490 0
628 15 253 -491 0
628 -15 491 0
628 -253 491 0
628 16 254 -492 0
628 -16 492 0
628 -254 492 0
628 17 255 -493 0
628 -17 493 0
628 -255 493 0
628 18 256 -494 0
628 -18 494 0
628 -256 494 0
628 19 257 -495 0
628 -19 495 0
628 -257 495 0
628 20 258 -496 0
628 -20 496 0
628 -258 496 0
628 21 259 -497 0
628 -21 497 0
628 -259 497 0
628 22 260 -498 0
628 -22 498 0
628 -260 498 0
628 23 261 -499 0
628 -23 499 0
628 -261 499 0
628 24 262 -500 0
628 -24 500 0
628 -262 500 0
628 25 263 -501 0
628 -25 501 0
628 -263 501 0
628 26 264 -502 0
628 -26 502 0
628 -264 502 0
628 27 265 -503 0
628 -27 503 0
628 -265 503 0
628 28 266 -504 0
628 -28 504 0
628 -266 504 0
628 29 267 -505 0
628 -29 505 0
628 -267 505 0
628 30 268 -506 0
628 -30 506 0
628 -268 506 0
628 31 269 -507 0
628 -31 507 0
628 -269 507 0
628 32 270 -508 0
628 -32 508 0
628 -270 508 0
628 33 271 -509 0
628 -33 509 0
628 -271 509 0
628 34 272 -510 0
628 -34 510 0
628 -272 510 0
628 35 273 -511 0
628 -35 511 0
628 -273 511 0
628 36 274 -512 0
628 -36 512 0
628 -274 512 0
628 37 275 -513 0
628 -37 513 0
628 -275 513 0
628 38 276 -514 0
628 -38 514 0
628 -276 514 0
628 39 277 -515 0
628 -39 515 0
628 -277 515 0
628 40 278 -516 0
628 -40 516 0
628 -278 516 0
628 41 279 -517 0
628 -41 517 0
628 -279 517 0
628 42 280 -518 0
628 -42 518 0
628 -280 518 0
628 43 281 -519 0
628 -43 519 0
628 -281 519 0
628 44 282 -520 0
628 -44 520 0
628 -282 520 0
628 45 283 -521 0
628 -45 521 0
628 -283 521 0
628 46 284 -522 0
628 -46 522 0
628 -284 522 0
628 47 285 -523 0
628 -47 523 0
628 -285 523 0
628 48 286 -524 0
628 -48 524 0
628 -286 524 0
628 49 287 -525 0
628 -49 525 0
628 -287 525 0
628 50 288 -526 0
628 -50 526 0
628 -288 526 0
628 51 289 -527 0
628 -51 527 0
628 -289 527 0
628 52 290 -528 0
628 -52 528 0
628 -290 528 0
628 53 291 -529 0
628 -53 529 0
628 -291 529 0
628 54 292 -530 0
628 -54 530 0
628 -292 530 0
628 55 293 -531 0
628 -55 531 0
628 -293 531 0
628 56 294 -532 0
628 -56 532 0
628 -294 532 0
628 57 295 -533 0
628 -57 533 0
628 -295 533 0
628 58 296 -534 0
628 -58 534 0
628 -296 534 0
628 59 297 -535 0
628 -59 535 0
628 -297 535 0
628 60 298 -536 0
628 -60 536 0
628 -298 536 0
628 61 299 -537 0
628 -61 537 0
628 -299 537 0
628 62 300 -538 0
628 -62 538 0
628 -300 538 0
628 63 301 -539 0
628 -63 539 0
628 -301 539 0
628 64 302 -540 0
628 -64 540 0
628 -302 540 0
628 65 303 -541 0
628 -65 541 0
628 -303 541 0
628 66 304 -542 0
628 -66 542 0
628 -304 542 0
628 67 305 -543 0
628 -67 543 0
628 -305 543 0
628 68 306 -544 0
628 -68 544 0
628 -306 544 0
628 69 307 -545 0
628 -69 545 0
628 -307 545 0
628 70 308 -546 0
628 -70 546 0
628 -308 546 0
628 71 309 -547 0
628 -71 547 0
628 -309 547 0
628 72 310 -548 0
628 -72 548 0
628 -310 548 0
628 73 311 -549 0
628 -73 549 0
628 -311 549 0
628 74 312 -550 0
628 -74 550 0
628 -312 550 0
628 75 313 -551 0
628 -75 551 0
628 -313 551 0
628 76 314 -552 0
628 -76 552 0
628 -314 552 0
628 77 315 -553 0
628 -77 553 0
628 -315 553 0
628 78 316 -554 0
628 -78 554 0
628 -316 554 0
628 79 317 -555 0
628 -79 555 0
628 -317 555 0
628 80 318 -556 0
628 -80 556 0
628 -318 556 0
628 81 319 -557 0
628 -81 557 0
628 -319 557 0
628 82 320 -558 0
628 -82 558 0
628 -320 558 0
628 83 321 -559 0
628 -83 559 0
628 -321 559 0
628 84 322 -560 0
628 -84 560 0
628 -322 560 0
628 85 323 -561 0
628 -85 561 0
628 -323 561 0
628 86 324 -562 0
628 -86 562 0
628 -324 562 0
628 87 325 -563 0
628 -87 563 0
628 -325 563 0
628 88 326 -564 0
628 -88 564 0
628 -326 564 0
628 89 327 -565 0
628 -89 565 0
628 -327 565 0
628 90 328 -566 0
628 -90 566 0
628 -328 566 0
628 91 329 -567 0
628 -91 567 0
628 -329 567 0
628 92 330 -568 0
628 -92 568 0
628 -330 568 0
628 93 331 -569 0
628 -93 569 0
628 -331 569 0
628 94 332 -570 0
628 -94 570 0
628 -332 570 0
628 95 333 -571 0
628 -95 571 0
628 -333 571 0
628 96 334 -572 0
628 -96 572 0
628 -334 572 0
628 97 335 -573 0
628 -97 573 0
628 -335 573 0
628 98 336 -574 0
628 -98 574 0
628 -336 574 0
628 99 337 -575 0
628 -99 575 0
628 -337 575 0
628 100 338 -576 0
628 -100 576 0
628 -338 576 0
628 101 339 -577 0
628 -101 577 0
628 -339 577 0
628 102 340 -578 0
628 -102 578 0
628 -340 578 0
628 103 341 -579 0
628 -103 579 0
628 -341 579 0
628 104 342 -580 0
628 -104 580 0
628 -342 580 0
628 105 343 -581 0
628 -105 581 0
628 -343 581 0
628 106 344 -582 0
628 -106 582 0
628 -344 582 0
628 107 345 -583 0
628 -107 583 0
628 -345 583 0
628 108 346 -584 0
628 -108 584 0
628 -346 584 0
628 109 347 -585 0
628 -109 585 0
628 -347 585 0
628 110 348 -586 0
628 -110 586 0
628 -348 586 0
628 111 349 -587 0
628 -111 587 0
628 -349 587 0
628 112 350 -588 0
628 -112 588 0
628 -350 588 0
628 113 351 -589 0
628 -113 589 0
628 -351 589 0
628 114 352 -590 0
628 -114 590 0
628 -352 590 0
628 115 353 -591 0
628 -115 591 0
628 -353 591 0
628 116 354 -592 0
628 -116 592 0
628 -354 592 0
628 117 355 -593 0
628 -117 593 0
628 -355 593 0
628 118 356 -594 0
628 -118 594 0
628 -356 594 0
628 119 357 -595 0
628 -119 595 0
628 -357 595 0
628 120 358 -596 0
628 -120 596 0
628 -358 596 0
628 121 359 -597 0
628 -121 597 0
628 -359 597 0
628 122 360 -598 0
628 -122 598 0
628 -360 598 0
628 123 361 -599 0
628 -123 599 0
628 -361 599 0
628 124 362 -600 0
628 -124 600 0
628 -362 600 0
628 125 363 -601 0
628 -125 601 0
628 -363 601 0
628 126 364 -602 0
628 -126 602 0
628 -364 602 0
628 127 365 -603 0
628 -127 603 0
628 -365 603 0
628 128 366 -604 0
628 -128 604 0
628 -366 604 0
628 129 367 -605 0
628 -129 605 0
628 -367 605 0
628 130 368 -606 0
628 -130 606 0
628 -368 606 0
628 131 369 -607 0
628 -131 607 0
628 -369 607 0
628 132 370 -608 0
628 -132 608 0
628 -370 608 0
628 133 371 -609 0
628 -133 609 0
628 -371 609 0
628 134 372 -610 0
628 -134 610 0
628 -372 610 0
628 135 373 -611 0
628 -135 611 0
628 -373 611 0
628 136 374 -612 0
628 -136 612 0
628 -374 612 0
628 137 375 -613 0
628 -137 613 0
628 -375 613 0
628 138 376 -614 0
628 -138 614 0
628 -376 614 0
628 139 377 -615 0
628 -139 615 0
628 -377 615 0
628 140 378 -616 0
628 -140 616 0
628 -378 616 0
628 141 379 -617 0
628 -141 617 0
628 -379 617 0
628 142 380 -618 0
628 -142 618 0
628 -380 618 0
628 143 381 -619 0
628 -143 619 0
628 -381 619 0
628 144 382 -620 0
628 -144 620 0
628 -382 620 0
628 145 383 -621 0
628 -145 621 0
628 -383 621 0
628 146 384 -622 0
628 -146 622 0
628 -384 622 0
628 147 385 -623 0
628 -147 623 0
628 -385 623 0
628 148 386 -624 0
628 -148 624 0
628 -386 624 0
628 149 387 -625 0
628 -149 625 0
628 -387 625 0
628 150 388 -626 0
628 -150 626 0
628 -388 626 0
628 151 389 -627 0
628 -151 627 0
628 -389 627 0
628 152 390 -628 0
628 -152 628 0
628 -390 628 0
628 153 391 -629 0
628 -153 629 0
628 -391 629 0
628 154 392 -630 0
628 -154 630 0
628 -392 630 0
628 155 393 -631 0
628 -155 631 0
628 -393 631 0
628 156 394 -632 0
628 -156 632 0
628 -394 632 0
628 157 395 -633 0
628 -157 633 0
628 -395 633 0
628 158 396 -634 0
628 -158 634 0
628 -396 634 0
628 159 397 -635 0
628 -159 635 0
628 -397 635 0
628 160 398 -636 0
628 -160 636 0
628 -398 636 0
628 161 399 -637 0
628 -161 637 0
628 -399 637 0
628 162 400 -638 0
628 -162 638 0
628 -400 638 0
628 163 401 -639 0
628 -163 639 0
628 -401 639 0
628 164 402 -640 0
628 -164 640 0
628 -402 640 0
628 165 403 -641 0
628 -165 641 0
628 -403 641 0
628 166 404 -642 0
628 -166 642 0
628 -404 642 0
628 167 405 -643 0
628 -167 643 0
628 -405 643 0
628 168 406 -644 0
628 -168 644 0
628 -406 644 0
628 169 407 -645 0
628 -169 645 0
628 -407 645 0
628 170 408 -646 0
628 -170 646 0
628 -408 646 0
628 171 409 -647 0
628 -171 647 0
628 -409 647 0
628 172 410 -648 0
628 -172 648 0
628 -410 648 0
628 173 411 -649 0
628 -173 649 0
628 -411 649 0
628 174 412 -650 0
628 -174 650 0
628 -412 650 0
628 175 413 -651 0
628 -175 651 0
628 -413 651 0
628 176 414 -652 0
628 -176 652 0
628 -414 652 0
628 177 415 -653 0
628 -177 653 0
628 -415 653 0
628 178 416 -654 0
628 -178 654 0
628 -416 654 0
628 179 417 -655 0
628 -179 655 0
628 -417 655 0
628 180 418 -656 0
628 -180 656 0
628 -418 656 0
628 181 419 -657 0
628 -181 657 0
628 -419 657 0
628 182 420 -658 0
628 -182 658 0
628 -420 658 0
628 183 421 -659 0
628 -183 659 0
628 -421 659 0
628 184 422 -660 0
628 -184 660 0
628 -422 660 0
628 185 423 -661 0
628 -185 661 0
628 -423 661 0
628 186 424 -662 0
628 -186 662 0
628 -424 662 0
628 187 425 -663 0
628 -187 663 0
628 -425 663 0
628 188 426 -664 0
628 -188 664 0
628 -426 664 0
628 189 427 -665 0
628 -189 665 0
628 -427 665 0
628 190 428 -666 0
628 -190 666 0
628 -428 666 0
628 191 429 -667 0
628 -191 667 0
628 -429 667 0
628 192 430 -668 0
628 -192 668 0
628 -430 668 0
628 193 431 -669 0
628 -193 669 0
628 -431 669 0
628 194 432 -670 0
628 -194 670 0
628 -432 670 0
628 195 433 -671 0
628 -195 671 0
628 -433 671 0
628 196 434 -672 0
628 -196 672 0
628 -434 672 0
628 197 435 -673 0
628 -197 673 0
628 -435 673 0
628 198 436 -674 0
628 -198 674 0
628 -436 674 0
628 199 437 -675 0
628 -199 675 0
628 -437 675 0
628 200 438 -676 0
628 -200 676 0
628 -438 676 0
628 201 439 -677 0
628 -201 677 0
628 -439 677 0
628 202 440 -678 0
628 -202 678 0
628 -440 678 0
628 203 441 -679 0
628 -203 679 0
628 -441 679 0
628 204 442 -680 0
628 -204 680 0
628 -442 680 0
628 205 443 -681 0
628 -205 681 0
628 -443 681 0
628 206 444 -682 0
628 -206 682 0
628 -444 682 0
628 207 445 -683 0
628 -207 683 0
628 -445 683 0
628 208 446 -684 0
628 -208 684 0
628 -446 684 0
628 209 447 -685 0
628 -209 685 0
628 -447 685 0
628 210 448 -686 0
628 -210 686 0
628 -448 686 0
628 211 449 -687 0
628 -211 687 0
628 -449 687 0
628 212 450 -688 0
628 -212 688 0
628 -450 688 0
628 213 451 -689 0
628 -213 689 0
628 -451 689 0
628 214 452 -690 0
628 -214 690 0
628 -452 690 0
628 215 453 -691 0
628 -215 691 0
628 -453 691 0
628 216 454 -692 0
628 -216 692 0
628 -454 692 0
628 217 455 -693 0
628 -217 693 0
628 -455 693 0
628 218 456 -694 0
628 -218 694 0
628 -456 694 0
628 219 457 -695 0
628 -219 695 0
628 -457 695 0
628 220 458 -696 0
628 -220 696 0
628 -458 696 0
628 221 459 -697 0
628 -221 697 0
628 -459 697 0
628 222 460 -698 0
628 -222 698 0
628 -460 698 0
628 223 461 -699 0
628 -223 699 0
628 -461 699 0
628 224 462 -700 0
628 -224 700 0
628 -462 700 0
628 225 463 -701 0
628 -225 701 0
628 -463 701 0
628 226 464 -702 0
628 -226 702 0
628 -464 702 0
628 227 465 -703 0
628 -227 703 0
628 -465 703 0
628 228 466 -704 0
628 -228 704 0
628 -466 704 0
628 229 467 -705 0
628 -229 705 0
628 -467 705 0
628 230 468 -706 0
628 -230 706 0
628 -468 706 0
628 231 469 -707 0
628 -231 707 0
628 -469 707 0
628 232 470 -708 0
628 -232 708 0
628 -470 708 0
628 233 471 -709 0
628 -233 709 0
628 -471 709 0
628 234 472 -710 0
628 -234 710 0
628 -472 710 0
628 235 473 -711 0
628 -235 711 0
628 -473 711 0
628 236 474 -712 0
628 -236 712 0
628 -474 712 0
628 237 475 -713 0
628 -237 713 0
628 -475 713 0
628 238 476 -714 0
628 -238 714 0
628 -476 714 0
628 -424 430 1024 0
628 424 430 -1024 0
628 -424 -430 -1024 0
628 424 -430 1024 0
628 -207 225 2053 0
628 207 225 -2053 0
628 -207 -225 -2053 0
628 207 -225 2053 0
628 -208 226 2060 0
628 208 226 -2060 0
628 -208 -226 -2060 0
628 208 -226 2060 0
628 -425 431 1031 0
628 425 431 -1031 0
628 -425 -431 -1031 0
628 425 -431 1031 0
628 -209 227 2067 0
628 209 227 -2067 0
628 -209 -227 -2067 0
628 209 -227 2067 0
628 -426 432 1038 0
628 426 432 -1038 0
628 -426 -432 -1038 0
628 426 -432 1038 0
628 -210 228 2074 0
628 210 228 -2074 0
628 -210 -228 -2074 0
628 210 -228 2074 0
628 -211 236 2081 0
628 211 236 -2081 0
628 -211 -236 -2081 0
628 211 -236 2081 0
628 -212 237 2088 0
628 212 237 -2088 0
628 -212 -237 -2088 0
628 212 -237 2088 0
628 -200 222 1563 0
628 200 222 -1563 0
628 -200 -222 -1563 0
628 200 -222 1563 0
628 -427 433 1045 0
628 427 433 -1045 0
628 -427 -433 -1045 0
628 427 -433 1045 0
628 -213 238 2095 0
628 213 238 -2095 0
628 -213 -238 -2095 0
628 213 -238 2095 0
628 -214 232 2102 0
628 214 232 -2102 0
628 -214 -232 -2102 0
628 214 -232 2102 0
628 -442 450 1052 0
628 442 450 -1052 0
628 -442 -450 -1052 0
628 442 -450 1052 0
628 -215 233 2109 0
628 215 233 -2109 0
628 -215 -233 -2109 0
628 215 -233 2109 0
628 -216 234 2116 0
628 216 234 -2116 0
628 -216 -234 -2116 0
628 216 -234 2116 0
628 -443 451 1059 0
628 443 451 -1059 0
628 -443 -451 -1059 0
628 443 -451 1059 0
628 -217 235 2123 0
628 217 235 -2123 0
628 -217 -235 -2123 0
628 217 -235 2123 0
628 -197 224 2130 0
628 197 224 -2130 0
628 -197 -224 -2130 0
628 197 -224 2130 0
628 -444 452 1066 0
628 444 452 -1066 0
628 -444 -452 -1066 0
628 444 -452 1066 0
628 -198 218 2137 0
628 198 218 -2137 0
628 -198 -218 -2137 0
628 198 -218 2137 0
628 -199 219 2144 0
628 199 219 -2144 0
628 -199 -219 -2144 0
628 199 -219 2144 0
628 -445 453 1073 0
628 445 453 -1073 0
628 -445 -453 -1073 0
628 445 -453 1073 0
628 -200 220 2151 0
628 200 220 -2151 0
628 -200 -220 -2151 0
628 200 -220 2151 0
628 -201 221 2158 0
628 201 221 -2158 0
628 -201 -221 -2158 0
628 201 -221 2158 0
628 -446 454 1080 0
628 446 454 -1080 0
628 -446 -454 -1080 0
628 446 -454 1080 0
628 -202 222 2165 0
628 202 222 -2165 0
628 -202 -222 -2165 0
628 202 -222 2165 0
628 -203 223 2172 0
628 203 223 -2172 0
628 -203 -223 -2172 0
628 203 -223 2172 0
628 -447 455 1087 0
628 447 455 -1087 0
628 -447 -455 -1087 0
628 447 -455 1087 0
628 -204 231 2179 0
628 204 231 -2179 0
628 -204 -231 -2179 0
628 204 -231 2179 0
628 -448 449 1094 0
628 448 449 -1094 0
628 -448 -449 -1094 0
628 448 -449 1094 0
628 -205 225 2186 0
628 205 225 -2186 0
628 -205 -225 -2186 0
628 205 -225 2186 0
628 -206 226 2193 0
628 206 226 -2193 0
628 -206 -226 -2193 0
628 206 -226 2193 0
628 -207 227 2200 0
628 207 227 -2200 0
628 -207 -227 -2200 0
628 207 -227 2200 0
628 -444 451 1101 0
628 444 451 -1101 0
628 -444 -451 -1101 0
628 444 -451 1101 0
628 -208 228 2207 0
628 208 228 -2207 0
628 -208 -228 -2207 0
628 208 -228 2207 0
628 -209 229 2214 0
628 209 229 -2214 0
628 -209 -229 -2214 0
628 209 -229 2214 0
628 -445 452 1108 0
628 445 452 -1108 0
628 -445 -452 -1108 0
628 445 -452 1108 0
628 -210 230 2221 0
628 210 230 -2221 0
628 -210 -230 -2221 0
628 210 -230 2221 0
628 -211 238 2228 0
628 211 238 -2228 0
628 -211 -238 -2228 0
628 211 -238 2228 0
628 -446 453 1115 0
628 446 453 -1115 0
628 -446 -453 -1115 0
628 446 -453 1115 0
628 -212 232 2235 0
628 212 232 -2235 0
628 -212 -232 -2235 0
628 212 -232 2235 0
628 -447 454 1122 0
628 447 454 -1122 0
628 -447 -454 -1122 0
628 447 -454 1122 0
628 -213 233 2242 0
628 213 233 -2242 0
628 -213 -233 -2242 0
628 213 -233 2242 0
628 -214 234 2249 0
628 214 234 -2249 0
628 -214 -234 -2249 0
628 214 -234 2249 0
628 -215 235 2256 0
628 215 235 -2256 0
628 -215 -235 -2256 0
628 215 -235 2256 0
628 -448 455 1129 0
628 448 455 -1129 0
628 -448 -455 -1129 0
628 448 -455 1129 0
628 -216 236 2263 0
628 216 236 -2263 0
628 -216 -236 -2263 0
628 216 -236 2263 0
628 -217 237 2270 0
628 217 237 -2270 0
628 -217 -237 -2270 0
628 217 -237 2270 0
628 -442 449 1136 0
628 442 449 -1136 0
628 -442 -449 -1136 0
628 442 -449 1136 0
628 -42 715 2284 0
628 42 715 -2284 0
628 -42 -715 -2284 0
628 42 -715 2284 0
628 -443 450 1143 0
628 443 450 -1143 0
628 -443 -450 -1143 0
628 443 -450 1143 0
628 -49 716 2298 0
628 49 716 -2298 0
628 -49 -716 -2298 0
628 49 -716 2298 0
628 -447 451 1150 0
628 447 451 -1150 0
628 -447 -451 -1150 0
628 447 -451 1150 0
628 -56 717 2312 0
628 56 717 -2312 0
628 -56 -717 -2312 0
628 56 -717 2312 0
628 -448 452 1157 0
628 448 452 -1157 0
628 -448 -452 -1157 0
628 448 -452 1157 0
628 -63 718 2326 0
628 63 718 -2326 0
628 -63 -718 -2326 0
628 63 -718 2326 0
628 -442 453 1164 0
628 442 453 -1164 0
628 -442 -453 -1164 0
628 442 -453 1164 0
628 -77 719 2340 0
628 77 719 -2340 0
628 -77 -719 -2340 0
628 77 -719 2340 0
628 -443 454 1171 0
628 443 454 -1171 0
628 -443 -454 -1171 0
628 443 -454 1171 0
628 -84 720 2354 0
628 84 720 -2354 0
628 -84 -720 -2354 0
628 84 -720 2354 0
628 -444 455 1178 0
628 444 455 -1178 0
628 -444 -455 -1178 0
628 444 -455 1178 0
628 -91 721 2368 0
628 91 721 -2368 0
628 -91 -721 -2368 0
628 91 -721 2368 0
628 -445 449 1185 0
628 445 449 -1185 0
628 -445 -449 -1185 0
628 445 -449 1185 0
628 -98 722 2382 0
628 98 722 -2382 0
628 -98 -722 -2382 0
628 98 -722 2382 0
628 -446 450 1192 0
628 446 450 -1192 0
628 -446 -450 -1192 0
628 446 -450 1192 0
628 -106 723 2388 0
628 106 723 -2388 0
628 -106 -723 -2388 0
628 106 -723 2388 0
628 -107 724 2394 0
628 107 724 -2394 0
628 -107 -724 -2394 0
628 107 -724 2394 0
628 -442 453 1199 0
628 442 453 -1199 0
628 -442 -453 -1199 0
628 442 -453 1199 0
628 -108 725 2406 0
628 108 725 -2406 0
628 -108 -725 -2406 0
628 108 -725 2406 0
628 -109 726 2412 0
628 109 726 -2412 0
628 -109 -726 -2412 0
628 109 -726 2412 0
628 -443 454 1206 0
628 443 454 -1206 0
628 -443 -454 -1206 0
628 443 -454 1206 0
628 -110 727 2424 0
628 110 727 -2424 0
628 -110 -727 -2424 0
628 110 -727 2424 0
628 -444 455 1213 0
628 444 455 -1213 0
628 -444 -455 -1213 0
628 444 -455 1213 0
628 -111 728 2430 0
628 111 728 -2430 0
628 -111 -728 -2430 0
628 111 -728 2430 0
628 -445 449 1220 0
628 445 449 -1220 0
628 -445 -449 -1220 0
628 445 -449 1220 0
628 -112 729 2442 0
628 112 729 -2442 0
628 -112 -729 -2442 0
628 112 -729 2442 0
628 -113 730 2448 0
628 113 730 -2448 0
628 -113 -730 -2448 0
628 113 -730 2448 0
628 -114 731 2454 0
628 114 731 -2454 0
628 -114 -731 -2454 0
628 114 -731 2454 0
628 -446 450 1227 0
628 446 450 -1227 0
628 -446 -450 -1227 0
628 446 -450 1227 0
628 -447 451 1234 0
628 447 451 -1234 0
628 -447 -451 -1234 0
628 447 -451 1234 0
628 -115 732 2466 0
628 115 732 -2466 0
628 -115 -732 -2466 0
628 115 -732 2466 0
628 -116 733 2472 0
628 116 733 -2472 0
628 -116 -733 -2472 0
628 116 -733 2472 0
628 -448 452 1241 0
628 448 452 -1241 0
628 -448 -452 -1241 0
628 448 -452 1241 0
628 -117 734 2484 0
628 117 734 -2484 0
628 -117 -734 -2484 0
628 117 -734 2484 0
628 -118 735 2490 0
628 118 735 -2490 0
628 -118 -735 -2490 0
628 118 -735 2490 0
628 -442 455 1248 0
628 442 455 -1248 0
628 -442 -455 -1248 0
628 442 -455 1248 0
628 -119 736 2502 0
628 119 736 -2502 0
628 -119 -736 -2502 0
628 119 -736 2502 0
628 -120 737 2508 0
628 120 737 -2508 0
628 -120 -737 -2508 0
628 120 -737 2508 0
628 -127 738 2514 0
628 127 738 -2514 0
628 -127 -738 -2514 0
628 127 -738 2514 0
628 -443 449 1255 0
628 443 449 -1255 0
628 -443 -449 -1255 0
628 443 -449 1255 0
628 -141 739 2524 0
628 141 739 -2524 0
628 -141 -739 -2524 0
628 141 -739 2524 0
628 -444 450 1262 0
628 444 450 -1262 0
628 -444 -450 -1262 0
628 444 -450 1262 0
628 -142 740 2536 0
628 142 740 -2536 0
628 -142 -740 -2536 0
628 142 -740 2536 0
628 -445 451 1269 0
628 445 451 -1269 0
628 -445 -451 -1269 0
628 445 -451 1269 0
628 -143 741 2548 0
628 143 741 -2548 0
628 -143 -741 -2548 0
628 143 -741 2548 0
628 -446 452 1276 0
628 446 452 -1276 0
628 -446 -452 -1276 0
628 446 -452 1276 0
628 -144 742 2560 0
628 144 742 -2560 0
628 -144 -742 -2560 0
628 144 -742 2560 0
628 -447 453 1283 0
628 447 453 -1283 0
628 -447 -453 -1283 0
628 447 -453 1283 0
628 -145 743 2572 0
628 145 743 -2572 0
628 -145 -743 -2572 0
628 145 -743 2572 0
628 -448 454 1290 0
628 448 454 -1290 0
628 -448 -454 -1290 0
628 448 -454 1290 0
628 -146 744 2582 0
628 146 744 -2582 0
628 -146 -744 -2582 0
628 146 -744 2582 0
628 -463 471 1297 0
628 463 471 -1297 0
628 -463 -471 -1297 0
628 463 -471 1297 0
628 -147 745 2594 0
628 147 745 -2594 0
628 -147 -745 -2594 0
628 147 -745 2594 0
628 -148 746 2604 0
628 148 746 -2604 0
628 -148 -746 -2604 0
628 148 -746 2604 0
628 -464 472 1304 0
628 464 472 -1304 0
628 -464 -472 -1304 0
628 464 -472 1304 0
628 -149 747 2616 0
628 149 747 -2616 0
628 -149 -747 -2616 0
628 149 -747 2616 0
628 -465 473 1311 0
628 465 473 -1311 0
628 -465 -473 -1311 0
628 465 -473 1311 0
628 -150 748 2628 0
628 150 748 -2628 0
628 -150 -748 -2628 0
628 150 -748 2628 0
628 -466 474 1318 0
628 466 474 -1318 0
628 -466 -474 -1318 0
628 466 -474 1318 0
628 -214 236 1661 0
628 214 236 -1661 0
628 -214 -236 -1661 0
628 214 -236 1661 0
628 -151 749 2640 0
628 151 749 -2640 0
628 -151 -749 -2640 0
628 151 -749 2640 0
628 -467 475 1325 0
628 467 475 -1325 0
628 -467 -475 -1325 0
628 467 -475 1325 0
628 -152 750 2652 0
628 152 750 -2652 0
628 -152 -750 -2652 0
628 152 -750 2652 0
628 -153 751 2662 0
628 153 751 -2662 0
628 -153 -751 -2662 0
628 153 -751 2662 0
628 -468 476 1332 0
628 468 476 -1332 0
628 -468 -476 -1332 0
628 468 -476 1332 0
628 -154 752 2674 0
628 154 752 -2674 0
628 -154 -752 -2674 0
628 154 -752 2674 0
628 -469 470 1339 0
628 469 470 -1339 0
628 -469 -470 -1339 0
628 469 -470 1339 0
628 -155 753 2684 0
628 155 753 -2684 0
628 -155 -753 -2684 0
628 155 -753 2684 0
628 -465 472 1346 0
628 465 472 -1346 0
628 -465 -472 -1346 0
628 465 -472 1346 0
628 -162 754 2694 0
628 162 754 -2694 0
628 -162 -754 -2694 0
628 162 -754 2694 0
628 -466 473 1353 0
628 466 473 -1353 0
628 -466 -473 -1353 0
628 466 -473 1353 0
628 -467 474 1360 0
628 467 474 -1360 0
628 -467 -474 -1360 0
628 467 -474 1360 0
628 -468 475 1367 0
628 468 475 -1367 0
628 -468 -475 -1367 0
628 468 -475 1367 0
628 -183 755 2742 0
628 183 755 -2742 0
628 -183 -755 -2742 0
628 183 -755 2742 0
628 -469 476 1374 0
628 469 476 -1374 0
628 -469 -476 -1374 0
628 469 -476 1374 0
628 -463 470 1381 0
628 463 470 -1381 0
628 -463 -470 -1381 0
628 463 -470 1381 0
628 -464 471 1388 0
628 464 471 -1388 0
628 -464 -471 -1388 0
628 464 -471 1388 0
628 -468 472 1395 0
628 468 472 -1395 0
628 -468 -472 -1395 0
628 468 -472 1395 0
628 -190 756 2796 0
628 190 756 -2796 0
628 -190 -756 -2796 0
628 190 -756 2796 0
628 -469 473 1402 0
628 469 473 -1402 0
628 -469 -473 -1402 0
628 469 -473 1402 0
628 -463 474 1409 0
628 463 474 -1409 0
628 -463 -474 -1409 0
628 463 -474 1409 0
628 -204 757 2824 0
628 204 757 -2824 0
628 -204 -757 -2824 0
628 204 -757 2824 0
628 -464 475 1416 0
628 464 475 -1416 0
628 -464 -475 -1416 0
628 464 -475 1416 0
628 -465 476 1423 0
628 465 476 -1423 0
628 -465 -476 -1423 0
628 465 -476 1423 0
628 -211 758 2850 0
628 211 758 -2850 0
628 -211 -758 -2850 0
628 211 -758 2850 0
628 -466 470 1430 0
628 466 470 -1430 0
628 -466 -470 -1430 0
628 466 -470 1430 0
628 -252 759 2864 0
628 252 759 -2864 0
628 -252 -759 -2864 0
628 252 -759 2864 0
628 -259 760 2878 0
628 259 760 -2878 0
628 -259 -760 -2878 0
628 259 -760 2878 0
628 -467 471 1437 0
628 467 471 -1437 0
628 -467 -471 -1437 0
628 467 -471 1437 0
628 -463 474 1444 0
628 463 474 -1444 0
628 -463 -474 -1444 0
628 463 -474 1444 0
628 -260 761 2884 0
628 260 761 -2884 0
628 -260 -761 -2884 0
628 260 -761 2884 0
628 -261 762 2890 0
628 261 762 -2890 0
628 -261 -762 -2890 0
628 261 -762 2890 0
628 -262 763 2902 0
628 262 763 -2902 0
628 -262 -763 -2902 0
628 262 -763 2902 0
628 -263 764 2908 0
628 263 764 -2908 0
628 -263 -764 -2908 0
628 263 -764 2908 0
628 -464 475 1451 0
628 464 475 -1451 0
628 -464 -475 -1451 0
628 464 -475 1451 0
628 -465 476 1458 0
628 465 476 -1458 0
628 -465 -476 -1458 0
628 465 -476 1458 0
628 -264 765 2920 0
628 264 765 -2920 0
628 -264 -765 -2920 0
628 264 -765 2920 0
628 -265 766 2926 0
628 265 766 -2926 0
628 -265 -766 -2926 0
628 265 -766 2926 0
628 -466 470 1465 0
628 466 470 -1465 0
628 -466 -470 -1465 0
628 466 -470 1465 0
628 -266 767 2938 0
628 266 767 -2938 0
628 -266 -767 -2938 0
628 266 -767 2938 0
628 -467 471 1472 0
628 467 471 -1472 0
628 -467 -471 -1472 0
628 467 -471 1472 0
628 -267 768 2948 0
628 267 768 -2948 0
628 -267 -768 -2948 0
628 267 -768 2948 0
628 -268 769 2960 0
628 268 769 -2960 0
628 -268 -769 -2960 0
628 268 -769 2960 0
628 -468 472 1479 0
628 468 472 -1479 0
628 -468 -472 -1479 0
628 468 -472 1479 0
628 -269 770 2972 0
628 269 770 -2972 0
628 -269 -770 -2972 0
628 269 -770 2972 0
628 -270 771 2984 0
628 270 771 -2984 0
628 -270 -771 -2984 0
628 270 -771 2984 0
628 -469 473 1486 0
628 469 473 -1486 0
628 -469 -473 -1486 0
628 469 -473 1486 0
628 -271 772 2996 0
628 271 772 -2996 0
628 -271 -772 -2996 0
628 271 -772 2996 0
628 -463 476 1493 0
628 463 476 -1493 0
628 -463 -476 -1493 0
628 463 -476 1493 0
628 -297 779 3070 0
628 297 779 -3070 0
628 -297 -779 -3070 0
628 297 -779 3070 0
628 -464 470 1500 0
628 464 470 -1500 0
628 -464 -470 -1500 0
628 464 -470 1500 0
628 -465 471 1507 0
628 465 471 -1507 0
628 -465 -471 -1507 0
628 465 -471 1507 0
628 -272 773 3006 0
628 272 773 -3006 0
628 -272 -773 -3006 0
628 272 -773 3006 0
628 -273 774 3018 0
628 273 774 -3018 0
628 -273 -774 -3018 0
628 273 -774 3018 0
628 -466 472 1514 0
628 466 472 -1514 0
628 -466 -472 -1514 0
628 466 -472 1514 0
628 -287 775 3032 0
628 287 775 -3032 0
628 -287 -775 -3032 0
628 287 -775 3032 0
628 -294 776 3046 0
628 294 776 -3046 0
628 -294 -776 -3046 0
628 294 -776 3046 0
628 -467 473 1521 0
628 467 473 -1521 0
628 -467 -473 -1521 0
628 467 -473 1521 0
628 -295 777 3052 0
628 295 777 -3052 0
628 -295 -777 -3052 0
628 295 -777 3052 0
628 -296 778 3058 0
628 296 778 -3058 0
628 -296 -778 -3058 0
628 296 -778 3058 0
628 -468 474 1528 0
628 468 474 -1528 0
628 -468 -474 -1528 0
628 468 -474 1528 0
628 -469 475 1535 0
628 469 475 -1535 0
628 -469 -475 -1535 0
628 469 -475 1535 0
628 -298 780 3076 0
628 298 780 -3076 0
628 -298 -780 -3076 0
628 298 -780 3076 0
628 -197 219 1542 0
628 197 219 -1542 0
628 -197 -219 -1542 0
628 197 -219 1542 0
628 -299 781 3088 0
628 299 781 -3088 0
628 -299 -781 -3088 0
628 299 -781 3088 0
628 -300 782 3094 0
628 300 782 -3094 0
628 -300 -782 -3094 0
628 300 -782 3094 0
628 -198 220 1549 0
628 198 220 -1549 0
628 -198 -220 -1549 0
628 198 -220 1549 0
628 -199 221 1556 0
628 199 221 -1556 0
628 -199 -221 -1556 0
628 199 -221 1556 0
628 -301 783 3106 0
628 301 783 -3106 0
628 -301 -783 -3106 0
628 301 -783 3106 0
628 -302 784 3116 0
628 302 784 -3116 0
628 -302 -784 -3116 0
628 302 -784 3116 0
628 -303 785 3128 0
628 303 785 -3128 0
628 -303 -785 -3128 0
628 303 -785 3128 0
628 -201 223 1570 0
628 201 223 -1570 0
628 -201 -223 -1570 0
628 201 -223 1570 0
628 -304 786 3140 0
628 304 786 -3140 0
628 -304 -786 -3140 0
628 304 -786 3140 0
628 -202 224 1577 0
628 202 224 -1577 0
628 -202 -224 -1577 0
628 202 -224 1577 0
628 -305 787 3152 0
628 305 787 -3152 0
628 -305 -787 -3152 0
628 305 -787 3152 0
628 -306 788 3164 0
628 306 788 -3164 0
628 -306 -788 -3164 0
628 306 -788 3164 0
628 -203 218 1584 0
628 203 218 -1584 0
628 -203 -218 -1584 0
628 203 -218 1584 0
628 -307 789 3174 0
628 307 789 -3174 0
628 -307 -789 -3174 0
628 307 -789 3174 0
628 -204 226 1591 0
628 204 226 -1591 0
628 -204 -226 -1591 0
628 204 -226 1591 0
628 -308 790 3186 0
628 308 790 -3186 0
628 -308 -790 -3186 0
628 308 -790 3186 0
628 -357 795 3244 0
628 357 795 -3244 0
628 -357 -795 -3244 0
628 357 -795 3244 0
628 -205 227 1598 0
628 205 227 -1598 0
628 -205 -227 -1598 0
628 205 -227 1598 0
628 -322 791 3200 0
628 322 791 -3200 0
628 -322 -791 -3200 0
628 322 -791 3200 0
628 -329 792 3214 0
628 329 792 -3214 0
628 -329 -792 -3214 0
628 329 -792 3214 0
628 -206 228 1605 0
628 206 228 -1605 0
628 -206 -228 -1605 0
628 206 -228 1605 0
628 -330 793 3220 0
628 330 793 -3220 0
628 -330 -793 -3220 0
628 330 -793 3220 0
628 -337 794 3230 0
628 337 794 -3230 0
628 -337 -794 -3230 0
628 337 -794 3230 0
628 -207 229 1612 0
628 207 229 -1612 0
628 -207 -229 -1612 0
628 207 -229 1612 0
628 -421 429 807 0
628 421 429 -807 0
628 -421 -429 -807 0
628 421 -429 807 0
628 -208 230 1619 0
628 208 230 -1619 0
628 -208 -230 -1619 0
628 208 -230 1619 0
628 -209 231 1626 0
628 209 231 -1626 0
628 -209 -231 -1626 0
628 209 -231 1626 0
628 -422 430 814 0
628 422 430 -814 0
628 -422 -430 -814 0
628 422 -430 814 0
628 -364 796 3258 0
628 364 796 -3258 0
628 -364 -796 -3258 0
628 364 -796 3258 0
628 -210 225 1633 0
628 210 225 -1633 0
628 -210 -225 -1633 0
628 210 -225 1633 0
628 -365 797 3264 0
628 365 797 -3264 0
628 -365 -797 -3264 0
628 365 -797 3264 0
628 -372 798 3274 0
628 372 798 -3274 0
628 -372 -798 -3274 0
628 372 -798 3274 0
628 -211 233 1640 0
628 211 233 -1640 0
628 -211 -233 -1640 0
628 211 -233 1640 0
628 -423 431 821 0
628 423 431 -821 0
628 -423 -431 -821 0
628 423 -431 821 0
628 -212 234 1647 0
628 212 234 -1647 0
628 -212 -234 -1647 0
628 212 -234 1647 0
628 -213 235 1654 0
628 213 235 -1654 0
628 -213 -235 -1654 0
628 213 -235 1654 0
628 -424 432 828 0
628 424 432 -828 0
628 -424 -432 -828 0
628 424 -432 828 0
628 -435 799 3322 0
628 435 799 -3322 0
628 -435 -799 -3322 0
628 435 -799 3322 0
628 -425 433 835 0
628 425 433 -835 0
628 -425 -433 -835 0
628 425 -433 835 0
628 -215 237 1668 0
628 215 237 -1668 0
628 -215 -237 -1668 0
628 215 -237 1668 0
628 -216 238 1675 0
628 216 238 -1675 0
628 -216 -238 -1675 0
628 216 -238 1675 0
628 -442 800 3350 0
628 442 800 -3350 0
628 -442 -800 -3350 0
628 442 -800 3350 0
628 -426 434 842 0
628 426 434 -842 0
628 -426 -434 -842 0
628 426 -434 842 0
628 -217 232 1682 0
628 217 232 -1682 0
628 -217 -232 -1682 0
628 217 -232 1682 0
628 -199 220 1689 0
628 199 220 -1689 0
628 -199 -220 -1689 0
628 199 -220 1689 0
628 -427 428 849 0
628 427 428 -849 0
628 -427 -428 -849 0
628 427 -428 849 0
628 -200 221 1696 0
628 200 221 -1696 0
628 -200 -221 -1696 0
628 200 -221 1696 0
628 -463 802 3430 0
628 463 802 -3430 0
628 -463 -802 -3430 0
628 463 -802 3430 0
628 -202 223 1710 0
628 202 223 -1710 0
628 -202 -223 -1710 0
628 202 -223 1710 0
628 -456 801 3404 0
628 456 801 -3404 0
628 -456 -801 -3404 0
628 456 -801 3404 0
628 -201 222 1703 0
628 201 222 -1703 0
628 -201 -222 -1703 0
628 201 -222 1703 0
628 -423 430 856 0
628 423 430 -856 0
628 -423 -430 -856 0
628 423 -430 856 0
628 -203 224 1717 0
628 203 224 -1717 0
628 -203 -224 -1717 0
628 203 -224 1717 0
628 -197 218 1724 0
628 197 218 -1724 0
628 -197 -218 -1724 0
628 197 -218 1724 0
628 -424 431 863 0
628 424 431 -863 0
628 -424 -431 -863 0
628 424 -431 863 0
628 -198 219 1731 0
628 198 219 -1731 0
628 -198 -219 -1731 0
628 198 -219 1731 0
628 -425 432 870 0
628 425 432 -870 0
628 -425 -432 -870 0
628 425 -432 870 0
628 -206 227 1738 0
628 206 227 -1738 0
628 -206 -227 -1738 0
628 206 -227 1738 0
628 -207 228 1745 0
628 207 228 -1745 0
628 -207 -228 -1745 0
628 207 -228 1745 0
628 -208 229 1752 0
628 208 229 -1752 0
628 -208 -229 -1752 0
628 208 -229 1752 0
628 -426 433 877 0
628 426 433 -877 0
628 -426 -433 -877 0
628 426 -433 877 0
628 -209 230 1759 0
628 209 230 -1759 0
628 -209 -230 -1759 0
628 209 -230 1759 0
628 -427 434 884 0
628 427 434 -884 0
628 -427 -434 -884 0
628 427 -434 884 0
628 -210 231 1766 0
628 210 231 -1766 0
628 -210 -231 -1766 0
628 210 -231 1766 0
628 -204 225 1773 0
628 204 225 -1773 0
628 -204 -225 -1773 0
628 204 -225 1773 0
628 -205 226 1780 0
628 205 226 -1780 0
628 -205 -226 -1780 0
628 205 -226 1780 0
628 -421 428 891 0
628 421 428 -891 0
628 -421 -428 -891 0
628 421 -428 891 0
628 -213 234 1787 0
628 213 234 -1787 0
628 -213 -234 -1787 0
628 213 -234 1787 0
628 -422 429 898 0
628 422 429 -898 0
628 -422 -429 -898 0
628 422 -429 898 0
628 -214 235 1794 0
628 214 235 -1794 0
628 -214 -235 -1794 0
628 214 -235 1794 0
628 -215 236 1801 0
628 215 236 -1801 0
628 -215 -236 -1801 0
628 215 -236 1801 0
628 -211 232 1822 0
628 211 232 -1822 0
628 -211 -232 -1822 0
628 211 -232 1822 0
628 -426 430 905 0
628 426 430 -905 0
628 -426 -430 -905 0
628 426 -430 905 0
628 -216 237 1808 0
628 216 237 -1808 0
628 -216 -237 -1808 0
628 216 -237 1808 0
628 -217 238 1815 0
628 217 238 -1815 0
628 -217 -238 -1815 0
628 217 -238 1815 0
628 -427 431 912 0
628 427 431 -912 0
628 -427 -431 -912 0
628 427 -431 912 0
628 -212 233 1829 0
628 212 233 -1829 0
628 -212 -233 -1829 0
628 212 -233 1829 0
628 -202 220 1836 0
628 202 220 -1836 0
628 -202 -220 -1836 0
628 202 -220 1836 0
628 -421 432 919 0
628 421 432 -919 0
628 -421 -432 -919 0
628 421 -432 919 0
628 -203 221 1843 0
628 203 221 -1843 0
628 -203 -221 -1843 0
628 203 -221 1843 0
628 -422 433 926 0
628 422 433 -926 0
628 -422 -433 -926 0
628 422 -433 926 0
628 -197 222 1850 0
628 197 222 -1850 0
628 -197 -222 -1850 0
628 197 -222 1850 0
628 -198 223 1857 0
628 198 223 -1857 0
628 -198 -223 -1857 0
628 198 -223 1857 0
628 -199 224 1864 0
628 199 224 -1864 0
628 -199 -224 -1864 0
628 199 -224 1864 0
628 -423 434 933 0
628 423 434 -933 0
628 -423 -434 -933 0
628 423 -434 933 0
628 -200 218 1871 0
628 200 218 -1871 0
628 -200 -218 -1871 0
628 200 -218 1871 0
628 -424 428 940 0
628 424 428 -940 0
628 -424 -428 -940 0
628 424 -428 940 0
628 -201 219 1878 0
628 201 219 -1878 0
628 -201 -219 -1878 0
628 201 -219 1878 0
628 -209 227 1885 0
628 209 227 -1885 0
628 -209 -227 -1885 0
628 209 -227 1885 0
628 -210 228 1892 0
628 210 228 -1892 0
628 -210 -228 -1892 0
628 210 -228 1892 0
628 -425 429 947 0
628 425 429 -947 0
628 -425 -429 -947 0
628 425 -429 947 0
628 -204 229 1899 0
628 204 229 -1899 0
628 -204 -229 -1899 0
628 204 -229 1899 0
628 -421 432 954 0
628 421 432 -954 0
628 -421 -432 -954 0
628 421 -432 954 0
628 -205 230 1906 0
628 205 230 -1906 0
628 -205 -230 -1906 0
628 205 -230 1906 0
628 -206 231 1913 0
628 206 231 -1913 0
628 -206 -231 -1913 0
628 206 -231 1913 0
628 -207 225 1920 0
628 207 225 -1920 0
628 -207 -225 -1920 0
628 207 -225 1920 0
628 -422 433 961 0
628 422 433 -961 0
628 -422 -433 -961 0
628 422 -433 961 0
628 -208 226 1927 0
628 208 226 -1927 0
628 -208 -226 -1927 0
628 208 -226 1927 0
628 -216 234 1934 0
628 216 234 -1934 0
628 -216 -234 -1934 0
628 216 -234 1934 0
628 -423 434 968 0
628 423 434 -968 0
628 -423 -434 -968 0
628 423 -434 968 0
628 -217 235 1941 0
628 217 235 -1941 0
628 -217 -235 -1941 0
628 217 -235 1941 0
628 -211 236 1948 0
628 211 236 -1948 0
628 -211 -236 -1948 0
628 211 -236 1948 0
628 -424 428 975 0
628 424 428 -975 0
628 -424 -428 -975 0
628 424 -428 975 0
628 -212 237 1955 0
628 212 237 -1955 0
628 -212 -237 -1955 0
628 212 -237 1955 0
628 -213 238 1962 0
628 213 238 -1962 0
628 -213 -238 -1962 0
628 213 -238 1962 0
628 -425 429 982 0
628 425 429 -982 0
628 -425 -429 -982 0
628 425 -429 982 0
628 -214 232 1969 0
628 214 232 -1969 0
628 -214 -232 -1969 0
628 214 -232 1969 0
628 -215 233 1976 0
628 215 233 -1976 0
628 -215 -233 -1976 0
628 215 -233 1976 0
628 -426 430 989 0
628 426 430 -989 0
628 -426 -430 -989 0
628 426 -430 989 0
628 -197 222 1983 0
628 197 222 -1983 0
628 -197 -222 -1983 0
628 197 -222 1983 0
628 -198 223 1990 0
628 198 223 -1990 0
628 -198 -223 -1990 0
628 198 -223 1990 0
628 -427 431 996 0
628 427 431 -996 0
628 -427 -431 -996 0
628 427 -431 996 0
628 -199 224 1997 0
628 199 224 -1997 0
628 -199 -224 -1997 0
628 199 -224 1997 0
628 -200 218 2004 0
628 200 218 -2004 0
628 -200 -218 -2004 0
628 200 -218 2004 0
628 -421 434 1003 0
628 421 434 -1003 0
628 -421 -434 -1003 0
628 421 -434 1003 0
628 -201 219 2011 0
628 201 219 -2011 0
628 -201 -219 -2011 0
628 201 -219 2011 0
628 -422 428 1010 0
628 422 428 -1010 0
628 -422 -428 -1010 0
628 422 -428 1010 0
628 -202 220 2018 0
628 202 220 -2018 0
628 -202 -220 -2018 0
628 202 -220 2018 0
628 -203 221 2025 0
628 203 221 -2025 0
628 -203 -221 -2025 0
628 203 -221 2025 0
628 -204 229 2032 0
628 204 229 -2032 0
628 -204 -229 -2032 0
628 204 -229 2032 0
628 -423 429 1017 0
628 423 429 -1017 0
628 -423 -429 -1017 0
628 423 -429 1017 0
628 -205 230 2039 0
628 205 230 -2039 0
628 -205 -230 -2039 0
628 205 -230 2039 0
628 -206 231 2046 0
628 206 231 -2046 0
628 -206 -231 -2046 0
628 206 -231 2046 0
628 27 -57 -92 -2512 0
628 27 -57 92 2512 0
628 -27 57 -92 -2512 0
628 -27 57 92 2512 0
628 -27 -57 92 -2512 0
628 27 57 92 -2512 0
628 -27 -57 -92 2512 0
628 27 57 -92 2512 0
628 -81 -82 2637 -2639 0
628 -81 82 2637 2639 0
628 81 -82 -2637 -2639 0
628 81 82 -2637 2639 0
628 -81 82 -2637 -2639 0
628 81 82 2637 -2639 0
628 -81 -82 -2637 2639 0
628 81 -82 2637 2639 0
628 20 -50 -85 -2506 0
628 20 -50 85 2506 0
628 -20 50 -85 -2506 0
628 -20 50 85 2506 0
628 -20 -50 85 -2506 0
628 20 50 85 -2506 0
628 -20 -50 -85 2506 0
628 20 50 -85 2506 0
628 -340 -373 1251 -1253 0
628 -340 373 1251 1253 0
628 340 -373 -1251 -1253 0
628 340 373 -1251 1253 0
628 -340 373 -1251 -1253 0
628 340 373 1251 -1253 0
628 -340 -373 -1251 1253 0
628 340 -373 1251 1253 0
628 247 -281 -316 -1357 0
628 247 -281 316 1357 0
628 -247 281 -316 -1357 0
628 -247 281 316 1357 0
628 -247 -281 316 -1357 0
628 247 281 316 -1357 0
628 -247 -281 -316 1357 0
628 247 281 -316 1357 0
628 -352 -392 1378 -1380 0
628 -352 392 1378 1380 0
628 352 -392 -1378 -1380 0
628 352 392 -1378 1380 0
628 -352 392 -1378 -1380 0
628 352 392 1378 -1380 0
628 -352 -392 -1378 1380 0
628 352 -392 1378 1380 0
628 -80 -82 2499 -2501 0
628 -80 82 2499 2501 0
628 80 -82 -2499 -2501 0
628 80 82 -2499 2501 0
628 -80 82 -2499 -2501 0
628 80 82 2499 -2501 0
628 -80 -82 -2499 2501 0
628 80 -82 2499 2501 0
628 -328 -361 1391 -1393 0
628 -328 361 1391 1393 0
628 328 -361 -1391 -1393 0
628 328 361 -1391 1393 0
628 -328 361 -1391 -1393 0
628 328 361 1391 -1393 0
628 -328 -361 -1391 1393 0
628 328 -361 1391 1393 0
628 3 -4 -7 -2800 0
628 3 -4 7 2800 0
628 -3 4 -7 -2800 0
628 -3 4 7 2800 0
628 -3 -4 7 -2800 0
628 3 4 7 -2800 0
628 -3 -4 -7 2800 0
628 3 4 -7 2800 0
628 7 -12 -16 -1630 0
628 7 -12 16 1630 0
628 -7 12 -16 -1630 0
628 -7 12 16 1630 0
628 -7 -12 16 -1630 0
628 7 12 16 -1630 0
628 -7 -12 -16 1630 0
628 7 12 -16 1630 0
628 -47 -48 2496 -2498 0
628 -47 48 2496 2498 0
628 47 -48 -2496 -2498 0
628 47 48 -2496 2498 0
628 -47 48 -2496 -2498 0
628 47 48 2496 -2498 0
628 -47 -48 -2496 2498 0
628 47 -48 2496 2498 0
628 -55 -62 1713 -1715 0
628 -55 62 1713 1715 0
628 55 -62 -1713 -1715 0
628 55 62 -1713 1715 0
628 -55 62 -1713 -1715 0
628 55 62 1713 -1715 0
628 -55 -62 -1713 1715 0
628 55 -62 1713 1715 0
628 -130 -137 2050 -2052 0
628 -130 137 2050 2052 0
628 130 -137 -2050 -2052 0
628 130 137 -2050 2052 0
628 -130 137 -2050 -2052 0
628 130 137 2050 -2052 0
628 -130 -137 -2050 2052 0
628 130 -137 2050 2052 0
628 -44 -45 2493 -2495 0
628 -44 45 2493 2495 0
628 44 -45 -2493 -2495 0
628 44 45 -2493 2495 0
628 -44 45 -2493 -2495 0
628 44 45 2493 -2495 0
628 -44 -45 -2493 2495 0
628 44 -45 2493 2495 0
628 -407 -439 1246 -1248 0
628 -407 439 1246 1248 0
628 407 -439 -1246 -1248 0
628 407 439 -1246 1248 0
628 -407 439 -1246 -1248 0
628 407 439 1246 -1248 0
628 -407 -439 -1246 1248 0
628 407 -439 1246 1248 0
628 109 -114 -125 -2050 0
628 109 -114 125 2050 0
628 -109 114 -125 -2050 0
628 -109 114 125 2050 0
628 -109 -114 125 -2050 0
628 109 114 125 -2050 0
628 -109 -114 -125 2050 0
628 109 114 -125 2050 0
628 -80 -83 2488 -2490 0
628 -80 83 2488 2490 0
628 80 -83 -2488 -2490 0
628 80 83 -2488 2490 0
628 -80 83 -2488 -2490 0
628 80 83 2488 -2490 0
628 -80 -83 -2488 2490 0
628 80 -83 2488 2490 0
628 -279 -289 3408 -3410 0
628 -279 289 3408 3410 0
628 279 -289 -3408 -3410 0
628 279 289 -3408 3410 0
628 -279 289 -3408 -3410 0
628 279 289 3408 -3410 0
628 -279 -289 -3408 3410 0
628 279 -289 3408 3410 0
628 273 -305 -342 -1028 0
628 273 -305 342 1028 0
628 -273 305 -342 -1028 0
628 -273 305 342 1028 0
628 -273 -305 342 -1028 0
628 273 305 342 -1028 0
628 -273 -305 -342 1028 0
628 273 305 -342 1028 0
628 111 -116 -120 -2064 0
628 111 -116 120 2064 0
628 -111 116 -120 -2064 0
628 -111 116 120 2064 0
628 -111 -116 120 -2064 0
628 111 116 120 -2064 0
628 -111 -116 -120 2064 0
628 111 116 -120 2064 0
628 -26 -35 1560 -1562 0
628 -26 35 1560 1562 0
628 26 -35 -1560 -1562 0
628 26 35 -1560 1562 0
628 -26 35 -1560 -1562 0
628 26 35 1560 -1562 0
628 -26 -35 -1560 1562 0
628 26 -35 1560 1562 0
628 -131 -138 2057 -2059 0
628 -131 138 2057 2059 0
628 131 -138 -2057 -2059 0
628 131 138 -2057 2059 0
628 -131 138 -2057 -2059 0
628 131 138 2057 -2059 0
628 -131 -138 -2057 2059 0
628 131 -138 2057 2059 0
628 -78 -80 2480 -2482 0
628 -78 80 2480 2482 0
628 78 -80 -2480 -2482 0
628 78 80 -2480 2482 0
628 -78 80 -2480 -2482 0
628 78 80 2480 -2482 0
628 -78 -80 -2480 2482 0
628 78 -80 2480 2482 0
628 -406 -440 1239 -1241 0
628 -406 440 1239 1241 0
628 406 -440 -1239 -1241 0
628 406 440 -1239 1241 0
628 -406 440 -1239 -1241 0
628 406 440 1239 -1241 0
628 -406 -440 -1239 1241 0
628 406 -440 1239 1241 0
628 -377 -407 1028 -1030 0
628 -377 407 1028 1030 0
628 377 -407 -1028 -1030 0
628 377 407 -1028 1030 0
628 -377 407 -1028 -1030 0
628 377 407 1028 -1030 0
628 -377 -407 -1028 1030 0
628 377 -407 1028 1030 0
628 110 -115 -126 -2057 0
628 110 -115 126 2057 0
628 -110 115 -126 -2057 0
628 -110 115 126 2057 0
628 -110 -115 126 -2057 0
628 110 115 126 -2057 0
628 -110 -115 -126 2057 0
628 110 115 -126 2057 0
628 -13 -14 2477 -2479 0
628 -13 14 2477 2479 0
628 13 -14 -2477 -2479 0
628 13 14 -2477 2479 0
628 -13 14 -2477 -2479 0
628 13 14 2477 -2479 0
628 -13 -14 -2477 2479 0
628 13 -14 2477 2479 0
628 -11 -12 2475 -2477 0
628 -11 12 2475 2477 0
628 11 -12 -2475 -2477 0
628 11 12 -2475 2477 0
628 -11 12 -2475 -2477 0
628 11 12 2475 -2477 0
628 -11 -12 -2475 2477 0
628 11 -12 2475 2477 0
628 249 -281 -318 -860 0
628 249 -281 318 860 0
628 -249 281 -318 -860 0
628 -249 281 318 860 0
628 -249 -281 318 -860 0
628 249 281 318 -860 0
628 -249 -281 -318 860 0
628 249 281 -318 860 0
628 239 -278 -315 -839 0
628 239 -278 315 839 0
628 -239 278 -315 -839 0
628 -239 278 315 839 0
628 -239 -278 315 -839 0
628 239 278 315 -839 0
628 -239 -278 -315 839 0
628 239 278 -315 839 0
628 266 -299 -331 -1238 0
628 266 -299 331 1238 0
628 -266 299 -331 -1238 0
628 -266 299 331 1238 0
628 -266 -299 331 -1238 0
628 266 299 331 -1238 0
628 -266 -299 -331 1238 0
628 266 299 -331 1238 0
628 9 -46 -78 -2470 0
628 9 -46 78 2470 0
628 -9 46 -78 -2470 0
628 -9 46 78 2470 0
628 -9 -46 78 -2470 0
628 9 46 78 -2470 0
628 -9 -46 -78 2470 0
628 9 46 -78 2470 0
628 -345 -346 3379 -3381 0
628 -345 346 3379 3381 0
628 345 -346 -3379 -3381 0
628 345 346 -3379 3381 0
628 -345 346 -3379 -3381 0
628 345 346 3379 -3381 0
628 -345 -346 -3379 3381 0
628 345 -346 3379 3381 0
628 -121 -133 2070 -2072 0
628 -121 133 2070 2072 0
628 121 -133 -2070 -2072 0
628 121 133 -2070 2072 0
628 -121 133 -2070 -2072 0
628 121 133 2070 -2072 0
628 -121 -133 -2070 2072 0
628 121 -133 2070 2072 0
628 -79 -81 2463 -2465 0
628 -79 81 2463 2465 0
628 79 -81 -2463 -2465 0
628 79 81 -2463 2465 0
628 -79 81 -2463 -2465 0
628 79 81 2463 -2465 0
628 -79 -81 -2463 2465 0
628 79 -81 2463 2465 0
628 -139 -187 2065 -2067 0
628 -139 187 2065 2067 0
628 139 -187 -2065 -2067 0
628 139 187 -2065 2067 0
628 -139 187 -2065 -2067 0
628 139 187 2065 -2067 0
628 -139 -187 -2065 2067 0
628 139 -187 2065 2067 0
628 267 -306 -343 -1035 0
628 267 -306 343 1035 0
628 -267 306 -343 -1035 0
628 -267 306 343 1035 0
628 -267 -306 343 -1035 0
628 267 306 343 -1035 0
628 -267 -306 -343 1035 0
628 267 306 -343 1035 0
628 -45 -78 2461 -2463 0
628 -45 78 2461 2463 0
628 45 -78 -2461 -2463 0
628 45 78 -2461 2463 0
628 -45 78 -2461 -2463 0
628 45 78 2461 -2463 0
628 -45 -78 -2461 2463 0
628 45 -78 2461 2463 0
628 -256 -257 2875 -2877 0
628 -256 257 2875 2877 0
628 256 -257 -2875 -2877 0
628 256 257 -2875 2877 0
628 -256 257 -2875 -2877 0
628 256 257 2875 -2877 0
628 -256 -257 -2875 2877 0
628 256 -257 2875 2877 0
628 -13 -14 2459 -2461 0
628 -13 14 2459 2461 0
628 13 -14 -2459 -2461 0
628 13 14 -2459 2461 0
628 -13 14 -2459 -2461 0
628 13 14 2459 -2461 0
628 -13 -14 -2459 2461 0
628 13 -14 2459 2461 0
628 -408 -416 1036 -1038 0
628 -408 416 1036 1038 0
628 408 -416 -1036 -1038 0
628 408 416 -1036 1038 0
628 -408 416 -1036 -1038 0
628 408 416 1036 -1038 0
628 -408 -416 -1036 1038 0
628 408 -416 1036 1038 0
628 9 -10 -11 -2458 0
628 9 -10 11 2458 0
628 -9 10 -11 -2458 0
628 -9 10 11 2458 0
628 -9 -10 11 -2458 0
628 9 10 11 -2458 0
628 -9 -10 -11 2458 0
628 9 10 -11 2458 0
628 -140 -188 2072 -2074 0
628 -140 188 2072 2074 0
628 140 -188 -2072 -2074 0
628 140 188 -2072 2074 0
628 -140 188 -2072 -2074 0
628 140 188 2072 -2074 0
628 -140 -188 -2072 2074 0
628 140 -188 2072 2074 0
628 -81 -83 2452 -2454 0
628 -81 83 2452 2454 0
628 81 -83 -2452 -2454 0
628 81 83 -2452 2454 0
628 -81 83 -2452 -2454 0
628 81 83 2452 -2454 0
628 -81 -83 -2452 2454 0
628 81 -83 2452 2454 0
628 -130 -135 2078 -2080 0
628 -130 135 2078 2080 0
628 130 -135 -2078 -2080 0
628 130 135 -2078 2080 0
628 -130 135 -2078 -2080 0
628 130 135 2078 -2080 0
628 -130 -135 -2078 2080 0
628 130 -135 2078 2080 0
628 14 -44 -79 -2452 0
628 14 -44 79 2452 0
628 -14 44 -79 -2452 0
628 -14 44 79 2452 0
628 -14 -44 79 -2452 0
628 14 44 79 -2452 0
628 -14 -44 -79 2452 0
628 14 44 -79 2452 0
628 112 -118 -125 -2078 0
628 112 -118 125 2078 0
628 -112 118 -125 -2078 0
628 -112 118 125 2078 0
628 -112 -118 125 -2078 0
628 112 118 125 -2078 0
628 -112 -118 -125 2078 0
628 112 118 -125 2078 0
628 -70 -180 1708 -1710 0
628 -70 180 1708 1710 0
628 70 -180 -1708 -1710 0
628 70 180 -1708 1710 0
628 -70 180 -1708 -1710 0
628 70 180 1708 -1710 0
628 -70 -180 -1708 1710 0
628 70 -180 1708 1710 0
628 13 -43 -78 -2446 0
628 13 -43 78 2446 0
628 -13 43 -78 -2446 0
628 -13 43 78 2446 0
628 -13 -43 78 -2446 0
628 13 43 78 -2446 0
628 -13 -43 -78 2446 0
628 13 43 -78 2446 0
628 268 -307 -337 -1042 0
628 268 -307 337 1042 0
628 -268 307 -337 -1042 0
628 -268 307 337 1042 0
628 -268 -307 337 -1042 0
628 268 307 337 -1042 0
628 -268 -307 -337 1042 0
628 268 307 -337 1042 0
628 264 -297 -336 -1224 0
628 264 -297 336 1224 0
628 -264 297 -336 -1224 0
628 -264 297 336 1224 0
628 -264 -297 336 -1224 0
628 264 297 336 -1224 0
628 -264 -297 -336 1224 0
628 264 297 -336 1224 0
628 -136 -190 2086 -2088 0
628 -136 190 2086 2088 0
628 136 -190 -2086 -2088 0
628 136 190 -2086 2088 0
628 -136 190 -2086 -2088 0
628 136 190 2086 -2088 0
628 -136 -190 -2086 2088 0
628 136 -190 2086 2088 0
628 -75 -76 2440 -2442 0
628 -75 76 2440 2442 0
628 75 -76 -2440 -2442 0
628 75 76 -2440 2442 0
628 -75 76 -2440 -2442 0
628 75 76 2440 -2442 0
628 -75 -76 -2440 2442 0
628 75 -76 2440 2442 0
628 106 -119 -126 -2085 0
628 106 -119 126 2085 0
628 -106 119 -126 -2085 0
628 -106 119 126 2085 0
628 -106 -119 126 -2085 0
628 106 119 126 -2085 0
628 -106 -119 -126 2085 0
628 106 119 -126 2085 0
628 -39 -40 2435 -2437 0
628 -39 40 2435 2437 0
628 39 -40 -2435 -2437 0
628 39 40 -2435 2437 0
628 -39 40 -2435 -2437 0
628 39 40 2435 -2437 0
628 -39 -40 -2435 2437 0
628 39 -40 2435 2437 0
628 -403 -437 1218 -1220 0
628 -403 437 1218 1220 0
628 403 -437 -1218 -1220 0
628 403 437 -1218 1220 0
628 -403 437 -1218 -1220 0
628 403 437 1218 -1220 0
628 -403 -437 -1218 1220 0
628 403 -437 1218 1220 0
628 -372 -409 1042 -1044 0
628 -372 409 1042 1044 0
628 372 -409 -1042 -1044 0
628 372 409 -1042 1044 0
628 -372 409 -1042 -1044 0
628 372 409 1042 -1044 0
628 -372 -409 -1042 1044 0
628 372 -409 1042 1044 0
628 -24 -25 2805 -2807 0
628 -24 25 2805 2807 0
628 24 -25 -2805 -2807 0
628 24 25 -2805 2807 0
628 -24 25 -2805 -2807 0
628 24 25 2805 -2807 0
628 -24 -25 -2805 2807 0
628 24 -25 2805 2807 0
628 5 -36 -37 -2434 0
628 5 -36 37 2434 0
628 -5 36 -37 -2434 0
628 -5 36 37 2434 0
628 -5 -36 37 -2434 0
628 5 36 37 -2434 0
628 -5 -36 -37 2434 0
628 5 36 -37 2434 0
628 -20 -27 1566 -1568 0
628 -20 27 1566 1568 0
628 20 -27 -1566 -1568 0
628 20 27 -1566 1568 0
628 -20 27 -1566 -1568 0
628 20 27 1566 -1568 0
628 -20 -27 -1566 1568 0
628 20 -27 1566 1568 0
628 107 -113 -120 -2092 0
628 107 -113 120 2092 0
628 -107 113 -120 -2092 0
628 -107 113 120 2092 0
628 -107 -113 120 -2092 0
628 107 113 120 -2092 0
628 -107 -113 -120 2092 0
628 107 113 -120 2092 0
628 -71 -73 2427 -2429 0
628 -71 73 2427 2429 0
628 71 -73 -2427 -2429 0
628 71 73 -2427 2429 0
628 -71 73 -2427 -2429 0
628 71 73 2427 -2429 0
628 -71 -73 -2427 2429 0
628 71 -73 2427 2429 0
628 -132 -137 2092 -2094 0
628 -132 137 2092 2094 0
628 132 -137 -2092 -2094 0
628 132 137 -2092 2094 0
628 -132 137 -2092 -2094 0
628 132 137 2092 -2094 0
628 -132 -137 -2092 2094 0
628 132 -137 2092 2094 0
628 -402 -436 1211 -1213 0
628 -402 436 1211 1213 0
628 402 -436 -1211 -1213 0
628 402 436 -1211 1213 0
628 -402 436 -1211 -1213 0
628 402 436 1211 -1213 0
628 -402 -436 -1211 1213 0
628 402 -436 1211 1213 0
628 -395 -456 1400 -1402 0
628 -395 456 1400 1402 0
628 395 -456 -1400 -1402 0
628 395 456 -1400 1402 0
628 -395 456 -1400 -1402 0
628 395 456 1400 -1402 0
628 -395 -456 -1400 1402 0
628 395 -456 1400 1402 0
628 274 -275 -276 -3132 0
628 274 -275 276 3132 0
628 -274 275 -276 -3132 0
628 -274 275 276 3132 0
628 -274 -275 276 -3132 0
628 274 275 276 -3132 0
628 -274 -275 -276 3132 0
628 274 275 -276 3132 0
628 -71 -73 2420 -2422 0
628 -71 73 2420 2422 0
628 71 -73 -2420 -2422 0
628 71 73 -2420 2422 0
628 -71 73 -2420 -2422 0
628 71 73 2420 -2422 0
628 -71 -73 -2420 2422 0
628 71 -73 2420 2422 0
628 -393 -394 3425 -3427 0
628 -393 394 3425 3427 0
628 393 -394 -3425 -3427 0
628 393 394 -3425 3427 0
628 -393 394 -3425 -3427 0
628 393 394 3425 -3427 0
628 -393 -394 -3425 3427 0
628 393 -394 3425 3427 0
628 -311 -344 1048 -1050 0
628 -311 344 1048 1050 0
628 311 -344 -1048 -1050 0
628 311 344 -1048 1050 0
628 -311 344 -1048 -1050 0
628 311 344 1048 -1050 0
628 -311 -344 -1048 1050 0
628 311 -344 1048 1050 0
628 -121 -133 2098 -2100 0
628 -121 133 2098 2100 0
628 121 -133 -2098 -2100 0
628 121 133 -2098 2100 0
628 -121 133 -2098 -2100 0
628 121 133 2098 -2100 0
628 -121 -133 -2098 2100 0
628 121 -133 2098 2100 0
628 -5 -6 2416 -2418 0
628 -5 6 2416 2418 0
628 5 -6 -2416 -2418 0
628 5 6 -2416 2418 0
628 -5 6 -2416 -2418 0
628 5 6 2416 -2418 0
628 -5 -6 -2416 2418 0
628 5 -6 2416 2418 0
628 -289 -290 3125 -3127 0
628 -289 290 3125 3127 0
628 289 -290 -3125 -3127 0
628 289 290 -3125 3127 0
628 -289 290 -3125 -3127 0
628 289 290 3125 -3127 0
628 -289 -290 -3125 3127 0
628 289 -290 3125 3127 0
628 -379 -440 1050 -1052 0
628 -379 440 1050 1052 0
628 379 -440 -1050 -1052 0
628 379 440 -1050 1052 0
628 -379 440 -1050 -1052 0
628 379 440 1050 -1052 0
628 -379 -440 -1050 1052 0
628 379 -440 1050 1052 0
628 1 -2 -4 -2416 0
628 1 -2 4 2416 0
628 -1 2 -4 -2416 0
628 -1 2 4 2416 0
628 -1 -2 4 -2416 0
628 1 2 4 -2416 0
628 -1 -2 -4 2416 0
628 1 2 -4 2416 0
628 -138 -192 2100 -2102 0
628 -138 192 2100 2102 0
628 138 -192 -2100 -2102 0
628 138 192 -2100 2102 0
628 -138 192 -2100 -2102 0
628 138 192 2100 -2102 0
628 -138 -192 -2100 2102 0
628 138 -192 2100 2102 0
628 2 -39 -71 -2410 0
628 2 -39 71 2410 0
628 -2 39 -71 -2410 0
628 -2 39 71 2410 0
628 -2 -39 71 -2410 0
628 2 39 71 -2410 0
628 -2 -39 -71 2410 0
628 2 39 -71 2410 0
628 -366 -401 1203 -1205 0
628 -366 401 1203 1205 0
628 366 -401 -1203 -1205 0
628 366 401 -1203 1205 0
628 -366 401 -1203 -1205 0
628 366 401 1203 -1205 0
628 -366 -401 -1203 1205 0
628 366 -401 1203 1205 0
628 -127 -139 2106 -2108 0
628 -127 139 2106 2108 0
628 127 -139 -2106 -2108 0
628 127 139 -2106 2108 0
628 -127 139 -2106 -2108 0
628 127 139 2106 -2108 0
628 -127 -139 -2106 2108 0
628 127 -139 2106 2108 0
628 109 -115 -122 -2106 0
628 109 -115 122 2106 0
628 -109 115 -122 -2106 0
628 -109 115 122 2106 0
628 -109 -115 122 -2106 0
628 109 115 122 -2106 0
628 -109 -115 -122 2106 0
628 109 115 -122 2106 0
628 -72 -74 2403 -2405 0
628 -72 74 2403 2405 0
628 72 -74 -2403 -2405 0
628 72 74 -2403 2405 0
628 -72 74 -2403 -2405 0
628 72 74 2403 -2405 0
628 -72 -74 -2403 2405 0
628 72 -74 2403 2405 0
628 -10 -13 2800 -2802 0
628 -10 13 2800 2802 0
628 10 -13 -2800 -2802 0
628 10 13 -2800 2802 0
628 -10 13 -2800 -2802 0
628 10 13 2800 -2802 0
628 -10 -13 -2800 2802 0
628 10 -13 2800 2802 0
628 240 -280 -312 -1056 0
628 240 -280 312 1056 0
628 -240 280 -312 -1056 0
628 -240 280 312 1056 0
628 -240 -280 312 -1056 0
628 240 280 312 -1056 0
628 -240 -280 -312 1056 0
628 240 280 -312 1056 0
628 -103 -104 2793 -2795 0
628 -103 104 2793 2795 0
628 103 -104 -2793 -2795 0
628 103 104 -2793 2795 0
628 -103 104 -2793 -2795 0
628 103 104 2793 -2795 0
628 -103 -104 -2793 2795 0
628 103 -104 2793 2795 0
628 -329 -362 1398 -1400 0
628 -329 362 1398 1400 0
628 329 -362 -1398 -1400 0
628 329 362 -1398 1400 0
628 -329 362 -1398 -1400 0
628 329 362 1398 -1400 0
628 -329 -362 -1398 1400 0
628 329 -362 1398 1400 0
628 -128 -140 2113 -2115 0
628 -128 140 2113 2115 0
628 128 -140 -2113 -2115 0
628 128 140 -2113 2115 0
628 -128 140 -2113 -2115 0
628 128 140 2113 -2115 0
628 -128 -140 -2113 2115 0
628 128 -140 2113 2115 0
628 -4 -5 2397 -2399 0
628 -4 5 2397 2399 0
628 4 -5 -2397 -2399 0
628 4 5 -2397 2399 0
628 -4 5 -2397 -2399 0
628 4 5 2397 -2399 0
628 -4 -5 -2397 2399 0
628 4 -5 2397 2399 0
628 -345 -380 1056 -1058 0
628 -345 380 1056 1058 0
628 345 -380 -1056 -1058 0
628 345 380 -1056 1058 0
628 -345 380 -1056 -1058 0
628 345 380 1056 -1058 0
628 -345 -380 -1056 1058 0
628 345 -380 1056 1058 0
628 -400 -441 1197 -1199 0
628 -400 441 1197 1199 0
628 400 -441 -1197 -1199 0
628 400 441 -1197 1199 0
628 -400 441 -1197 -1199 0
628 400 441 1197 -1199 0
628 -400 -441 -1197 1199 0
628 400 -441 1197 1199 0
628 -74 -76 2392 -2394 0
628 -74 76 2392 2394 0
628 74 -76 -2392 -2394 0
628 74 76 -2392 2394 0
628 -74 76 -2392 -2394 0
628 74 76 2392 -2394 0
628 -74 -76 -2392 2394 0
628 74 -76 2392 2394 0
628 110 -116 -123 -2113 0
628 110 -116 123 2113 0
628 -110 116 -123 -2113 0
628 -110 116 123 2113 0
628 -110 -116 123 -2113 0
628 110 116 123 -2113 0
628 -110 -116 -123 2113 0
628 110 116 -123 2113 0
628 -380 -381 3421 -3423 0
628 -380 381 3421 3423 0
628 380 -381 -3421 -3423 0
628 380 381 -3421 3423 0
628 -380 381 -3421 -3423 0
628 380 381 3421 -3423 0
628 -380 -381 -3421 3423 0
628 380 -381 3421 3423 0
628 111 -117 -124 -2120 0
628 111 -117 124 2120 0
628 -111 117 -124 -2120 0
628 -111 117 124 2120 0
628 -111 -117 124 -2120 0
628 111 117 124 -2120 0
628 -111 -117 -124 2120 0
628 111 117 -124 2120 0
628 -293 -310 3368 -3370 0
628 -293 310 3368 3370 0
628 293 -310 -3368 -3370 0
628 293 310 -3368 3370 0
628 -293 310 -3368 -3370 0
628 293 310 3368 -3370 0
628 -293 -310 -3368 3370 0
628 293 -310 3368 3370 0
628 260 -300 -332 -1196 0
628 260 -300 332 1196 0
628 -260 300 -332 -1196 0
628 -260 300 332 1196 0
628 -260 -300 332 -1196 0
628 260 300 332 -1196 0
628 -260 -300 -332 1196 0
628 260 300 -332 1196 0
628 6 -36 -71 -2386 0
628 6 -36 71 2386 0
628 -6 36 -71 -2386 0
628 -6 36 71 2386 0
628 -6 -36 71 -2386 0
628 6 36 71 -2386 0
628 -6 -36 -71 2386 0
628 6 36 -71 2386 0
628 5 -9 -18 -1553 0
628 5 -9 18 1553 0
628 -5 9 -18 -1553 0
628 -5 9 18 1553 0
628 -5 -9 18 -1553 0
628 5 9 18 -1553 0
628 -5 -9 -18 1553 0
628 5 9 -18 1553 0
628 -96 -97 2380 -2382 0
628 -96 97 2380 2382 0
628 96 -97 -2380 -2382 0
628 96 97 -2380 2382 0
628 -96 97 -2380 -2382 0
628 96 97 2380 -2382 0
628 -96 -97 -2380 2382 0
628 96 -97 2380 2382 0
628 -352 -389 853 -855 0
628 -352 389 853 855 0
628 352 -389 -853 -855 0
628 352 389 -853 855 0
628 -352 389 -853 -855 0
628 352 389 853 -855 0
628 -352 -389 -853 855 0
628 352 -389 853 855 0
628 -134 -195 2121 -2123 0
628 -134 195 2121 2123 0
628 134 -195 -2121 -2123 0
628 134 195 -2121 2123 0
628 -134 195 -2121 -2123 0
628 134 195 2121 -2123 0
628 -134 -195 -2121 2123 0
628 134 -195 2121 2123 0
628 -92 -93 2376 -2378 0
628 -92 93 2376 2378 0
628 92 -93 -2376 -2378 0
628 92 93 -2376 2378 0
628 -92 93 -2376 -2378 0
628 92 93 2376 -2378 0
628 -92 -93 -2376 2378 0
628 92 -93 2376 2378 0
628 259 -292 -324 -1189 0
628 259 -292 324 1189 0
628 -259 292 -324 -1189 0
628 -259 292 324 1189 0
628 -259 -292 324 -1189 0
628 259 292 324 -1189 0
628 -259 -292 -324 1189 0
628 259 292 -324 1189 0
628 241 -274 -313 -1063 0
628 241 -274 313 1063 0
628 -241 274 -313 -1063 0
628 -241 274 313 1063 0
628 -241 -274 313 -1063 0
628 241 274 313 -1063 0
628 -241 -274 -313 1063 0
628 241 274 -313 1063 0
628 -24 -25 2371 -2373 0
628 -24 25 2371 2373 0
628 24 -25 -2371 -2373 0
628 24 25 -2371 2373 0
628 -24 25 -2371 -2373 0
628 24 25 2371 -2373 0
628 -24 -25 -2371 2373 0
628 24 -25 2371 2373 0
628 -156 -163 2126 -2128 0
628 -156 163 2126 2128 0
628 156 -163 -2126 -2128 0
628 156 163 -2126 2128 0
628 -156 163 -2126 -2128 0
628 156 163 2126 -2128 0
628 -156 -163 -2126 2128 0
628 156 -163 2126 2128 0
628 -279 -281 3119 -3121 0
628 -279 281 3119 3121 0
628 279 -281 -3119 -3121 0
628 279 281 -3119 3121 0
628 -279 281 -3119 -3121 0
628 279 281 3119 -3121 0
628 -279 -281 -3119 3121 0
628 279 -281 3119 3121 0
628 -381 -435 1064 -1066 0
628 -381 435 1064 1066 0
628 381 -435 -1064 -1066 0
628 381 435 -1064 1066 0
628 -381 435 -1064 -1066 0
628 381 435 1064 -1066 0
628 -381 -435 -1064 1066 0
628 381 -435 1064 1066 0
628 -27 -28 2374 -2376 0
628 -27 28 2374 2376 0
628 27 -28 -2374 -2376 0
628 27 28 -2374 2376 0
628 -27 28 -2374 -2376 0
628 27 28 2374 -2376 0
628 -27 -28 -2374 2376 0
628 27 -28 2374 2376 0
628 -398 -439 1183 -1185 0
628 -398 439 1183 1185 0
628 398 -439 -1183 -1185 0
628 398 439 -1183 1185 0
628 -398 439 -1183 -1185 0
628 398 439 1183 -1185 0
628 -398 -439 -1183 1185 0
628 398 -439 1183 1185 0
628 -88 -89 2365 -2367 0
628 -88 89 2365 2367 0
628 88 -89 -2365 -2367 0
628 88 89 -2365 2367 0
628 -88 89 -2365 -2367 0
628 88 89 2365 -2367 0
628 -88 -89 -2365 2367 0
628 88 -89 2365 2367 0
628 -172 -180 2128 -2130 0
628 -172 180 2128 2130 0
628 172 -180 -2128 -2130 0
628 172 180 -2128 2130 0
628 -172 180 -2128 -2130 0
628 172 180 2128 -2130 0
628 -172 -180 -2128 2130 0
628 172 -180 2128 2130 0
628 -286 -291 3112 -3114 0
628 -286 291 3112 3114 0
628 286 -291 -3112 -3114 0
628 286 291 -3112 3114 0
628 -286 291 -3112 -3114 0
628 286 291 3112 -3114 0
628 -286 -291 -3112 3114 0
628 286 -291 3112 3114 0
628 -164 -173 2134 -2136 0
628 -164 173 2134 2136 0
628 164 -173 -2134 -2136 0
628 164 173 -2134 2136 0
628 -164 173 -2134 -2136 0
628 164 173 2134 -2136 0
628 -164 -173 -2134 2136 0
628 164 -173 2134 2136 0
628 -20 -21 2360 -2362 0
628 -20 21 2360 2362 0
628 20 -21 -2360 -2362 0
628 20 21 -2360 2362 0
628 -20 21 -2360 -2362 0
628 20 21 2360 -2362 0
628 -20 -21 -2360 2362 0
628 20 -21 2360 2362 0
628 144 -148 -157 -2134 0
628 144 -148 157 2134 0
628 -144 148 -157 -2134 0
628 -144 148 157 2134 0
628 -144 -148 157 -2134 0
628 144 148 157 -2134 0
628 -144 -148 -157 2134 0
628 144 148 -157 2134 0
628 242 -275 -314 -1070 0
628 242 -275 314 1070 0
628 -242 275 -314 -1070 0
628 -242 275 314 1070 0
628 -242 -275 314 -1070 0
628 242 275 314 -1070 0
628 -242 -275 -314 1070 0
628 242 275 -314 1070 0
628 15 -16 -17 -2358 0
628 15 -16 17 2358 0
628 -15 16 -17 -2358 0
628 -15 16 17 2358 0
628 -15 -16 17 -2358 0
628 15 16 17 -2358 0
628 -15 -16 -17 2358 0
628 15 16 -17 2358 0
628 6 -10 -19 -1560 0
628 6 -10 19 1560 0
628 -6 10 -19 -1560 0
628 -6 10 19 1560 0
628 -6 -10 19 -1560 0
628 6 10 19 -1560 0
628 -6 -10 -19 1560 0
628 6 10 -19 1560 0
628 -82 -83 2352 -2354 0
628 -82 83 2352 2354 0
628 82 -83 -2352 -2354 0
628 82 83 -2352 2354 0
628 -82 83 -2352 -2354 0
628 82 83 2352 -2354 0
628 -82 -83 -2352 2354 0
628 82 -83 2352 2354 0
628 -158 -165 2140 -2142 0
628 -158 165 2140 2142 0
628 158 -165 -2140 -2142 0
628 158 165 -2140 2142 0
628 -158 165 -2140 -2142 0
628 158 165 2140 -2142 0
628 -158 -165 -2140 2142 0
628 158 -165 2140 2142 0
628 -174 -182 2142 -2144 0
628 -174 182 2142 2144 0
628 174 -182 -2142 -2144 0
628 174 182 -2142 2144 0
628 -174 182 -2142 -2144 0
628 174 182 2142 -2144 0
628 -174 -182 -2142 2144 0
628 174 -182 2142 2144 0
628 -347 -382 1070 -1072 0
628 -347 382 1070 1072 0
628 347 -382 -1070 -1072 0
628 347 382 -1070 1072 0
628 -347 382 -1070 -1072 0
628 347 382 1070 -1072 0
628 -347 -382 -1070 1072 0
628 347 -382 1070 1072 0
628 -79 -80 2349 -2351 0
628 -79 80 2349 2351 0
628 79 -80 -2349 -2351 0
628 79 80 -2349 2351 0
628 -79 80 -2349 -2351 0
628 79 80 2349 -2351 0
628 -79 -80 -2349 2351 0
628 79 -80 2349 2351 0
628 -329 -362 1174 -1176 0
628 -329 362 1174 1176 0
628 329 -362 -1174 -1176 0
628 329 362 -1174 1176 0
628 -329 362 -1174 -1176 0
628 329 362 1174 -1176 0
628 -329 -362 -1174 1176 0
628 329 -362 1174 1176 0
628 -88 -90 2783 -2785 0
628 -88 90 2783 2785 0
628 88 -90 -2783 -2785 0
628 88 90 -2783 2785 0
628 -88 90 -2783 -2785 0
628 88 90 2783 -2785 0
628 -88 -90 -2783 2785 0
628 88 -90 2783 2785 0
628 -95 -96 2787 -2789 0
628 -95 96 2787 2789 0
628 95 -96 -2787 -2789 0
628 95 96 -2787 2789 0
628 -95 96 -2787 -2789 0
628 95 96 2787 -2789 0
628 -95 -96 -2787 2789 0
628 95 -96 2787 2789 0
628 -11 -12 2344 -2346 0
628 -11 12 2344 2346 0
628 11 -12 -2344 -2346 0
628 11 12 -2344 2346 0
628 -11 12 -2344 -2346 0
628 11 12 2344 -2346 0
628 -11 -12 -2344 2346 0
628 11 -12 2344 2346 0
628 -359 -362 3418 -3420 0
628 -359 362 3418 3420 0
628 359 -362 -3418 -3420 0
628 359 362 -3418 3420 0
628 -359 362 -3418 -3420 0
628 359 362 3418 -3420 0
628 -359 -362 -3418 3420 0
628 359 -362 3418 3420 0
628 -396 -437 1169 -1171 0
628 -396 437 1169 1171 0
628 396 -437 -1169 -1171 0
628 396 437 -1169 1171 0
628 -396 437 -1169 -1171 0
628 396 437 1169 -1171 0
628 -396 -437 -1169 1171 0
628 396 -437 1169 1171 0
628 275 -277 -278 -3110 0
628 275 -277 278 3110 0
628 -275 277 -278 -3110 0
628 -275 277 278 3110 0
628 -275 -277 278 -3110 0
628 275 277 278 -3110 0
628 -275 -277 -278 3110 0
628 275 277 -278 3110 0
628 -175 -176 2149 -2151 0
628 -175 176 2149 2151 0
628 175 -176 -2149 -2151 0
628 175 176 -2149 2151 0
628 -175 176 -2149 -2151 0
628 175 176 2149 -2151 0
628 -175 -176 -2149 2151 0
628 175 -176 2149 2151 0
628 146 -150 -159 -2148 0
628 146 -150 159 2148 0
628 -146 150 -159 -2148 0
628 -146 150 159 2148 0
628 -146 -150 159 -2148 0
628 146 150 159 -2148 0
628 -146 -150 -159 2148 0
628 146 150 -159 2148 0
628 -315 -348 1076 -1078 0
628 -315 348 1076 1078 0
628 315 -348 -1076 -1078 0
628 315 348 -1076 1078 0
628 -315 348 -1076 -1078 0
628 315 348 1076 -1078 0
628 -315 -348 -1076 1078 0
628 315 -348 1076 1078 0
628 -7 -71 2333 -2335 0
628 -7 71 2333 2335 0
628 7 -71 -2333 -2335 0
628 7 71 -2333 2335 0
628 -7 71 -2333 -2335 0
628 7 71 2333 -2335 0
628 -7 -71 -2333 2335 0
628 7 -71 2333 2335 0
628 256 -289 -328 -1168 0
628 256 -289 328 1168 0
628 -256 289 -328 -1168 0
628 -256 289 328 1168 0
628 -256 -289 328 -1168 0
628 256 289 328 -1168 0
628 -256 -289 -328 1168 0
628 256 289 -328 1168 0
628 -5 -6 2331 -2333 0
628 -5 6 2331 2333 0
628 5 -6 -2331 -2333 0
628 5 6 -2331 2333 0
628 -5 6 -2331 -2333 0
628 5 6 2331 -2333 0
628 -5 -6 -2331 2333 0
628 5 -6 2331 2333 0
628 -160 -167 2154 -2156 0
628 -160 167 2154 2156 0
628 160 -167 -2154 -2156 0
628 160 167 -2154 2156 0
628 -160 167 -2154 -2156 0
628 160 167 2154 -2156 0
628 -160 -167 -2154 2156 0
628 160 -167 2154 2156 0
628 1 -2 -3 -2330 0
628 1 -2 3 2330 0
628 -1 2 -3 -2330 0
628 -1 2 3 2330 0
628 -1 -2 3 -2330 0
628 1 2 3 -2330 0
628 -1 -2 -3 2330 0
628 1 2 -3 2330 0
628 -100 -102 2791 -2793 0
628 -100 102 2791 2793 0
628 100 -102 -2791 -2793 0
628 100 102 -2791 2793 0
628 -100 102 -2791 -2793 0
628 100 102 2791 -2793 0
628 -100 -102 -2791 2793 0
628 100 -102 2791 2793 0
628 -169 -177 2156 -2158 0
628 -169 177 2156 2158 0
628 169 -177 -2156 -2158 0
628 169 177 -2156 2158 0
628 -169 177 -2156 -2158 0
628 169 177 2156 -2158 0
628 -169 -177 -2156 2158 0
628 169 -177 2156 2158 0
628 -61 -62 2324 -2326 0
628 -61 62 2324 2326 0
628 61 -62 -2324 -2326 0
628 61 62 -2324 2326 0
628 -61 62 -2324 -2326 0
628 61 62 2324 -2326 0
628 -61 -62 -2324 2326 0
628 61 -62 2324 2326 0
628 -383 -437 1078 -1080 0
628 -383 437 1078 1080 0
628 383 -437 -1078 -1080 0
628 383 437 -1078 1080 0
628 -383 437 -1078 -1080 0
628 383 437 1078 -1080 0
628 -383 -437 -1078 1080 0
628 383 -437 1078 1080 0
628 -34 -176 1554 -1556 0
628 -34 176 1554 1556 0
628 34 -176 -1554 -1556 0
628 34 176 -1554 1556 0
628 -34 176 -1554 -1556 0
628 34 176 1554 -1556 0
628 -34 -176 -1554 1556 0
628 34 -176 1554 1556 0
628 248 -287 -317 -853 0
628 248 -287 317 853 0
628 -248 287 -317 -853 0
628 -248 287 317 853 0
628 -248 -287 317 -853 0
628 248 287 317 -853 0
628 -248 -287 -317 853 0
628 248 287 -317 853 0
628 -57 -58 2320 -2322 0
628 -57 58 2320 2322 0
628 57 -58 -2320 -2322 0
628 57 58 -2320 2322 0
628 -57 58 -2320 -2322 0
628 57 58 2320 -2322 0
628 -57 -58 -2320 2322 0
628 57 -58 2320 2322 0
628 255 -288 -327 -1161 0
628 255 -288 327 1161 0
628 -255 288 -327 -1161 0
628 -255 288 327 1161 0
628 -255 -288 327 -1161 0
628 255 288 327 -1161 0
628 -255 -288 -327 1161 0
628 255 288 -327 1161 0
628 -168 -170 2162 -2164 0
628 -168 170 2162 2164 0
628 168 -170 -2162 -2164 0
628 168 170 -2162 2164 0
628 -168 170 -2162 -2164 0
628 168 170 2162 -2164 0
628 -168 -170 -2162 2164 0
628 168 -170 2162 2164 0
628 -25 -26 2316 -2318 0
628 -25 26 2316 2318 0
628 25 -26 -2316 -2318 0
628 25 26 -2316 2318 0
628 -25 26 -2316 -2318 0
628 25 26 2316 -2318 0
628 -25 -26 -2316 2318 0
628 25 -26 2316 2318 0
628 141 -152 -161 -2162 0
628 141 -152 161 2162 0
628 -141 152 -161 -2162 0
628 -141 152 161 2162 0
628 -141 -152 161 -2162 0
628 141 152 161 -2162 0
628 -141 -152 -161 2162 0
628 141 152 -161 2162 0
628 -288 -290 3102 -3104 0
628 -288 290 3102 3104 0
628 288 -290 -3102 -3104 0
628 288 290 -3102 3104 0
628 -288 290 -3102 -3104 0
628 288 290 3102 -3104 0
628 -288 -290 -3102 3104 0
628 288 -290 3102 3104 0
628 41 -45 -54 -1707 0
628 41 -45 54 1707 0
628 -41 45 -54 -1707 0
628 -41 45 54 1707 0
628 -41 -45 54 -1707 0
628 41 45 54 -1707 0
628 -41 -45 -54 1707 0
628 41 45 -54 1707 0
628 -394 -435 1155 -1157 0
628 -394 435 1155 1157 0
628 394 -435 -1155 -1157 0
628 394 435 -1155 1157 0
628 -394 435 -1155 -1157 0
628 394 435 1155 -1157 0
628 -394 -435 -1155 1157 0
628 394 -435 1155 1157 0
628 244 -277 -309 -1084 0
628 244 -277 309 1084 0
628 -244 277 -309 -1084 0
628 -244 277 309 1084 0
628 -244 -277 309 -1084 0
628 244 277 309 -1084 0
628 -244 -277 -309 1084 0
628 244 277 -309 1084 0
628 -51 -52 2307 -2309 0
628 -51 52 2307 2309 0
628 51 -52 -2307 -2309 0
628 51 52 -2307 2309 0
628 -51 52 -2307 -2309 0
628 51 52 2307 -2309 0
628 -51 -52 -2307 2309 0
628 51 -52 2307 2309 0
628 -394 -462 1393 -1395 0
628 -394 462 1393 1395 0
628 394 -462 -1393 -1395 0
628 394 462 -1393 1395 0
628 -394 462 -1393 -1395 0
628 394 462 1393 -1395 0
628 -394 -462 -1393 1395 0
628 394 -462 1393 1395 0
628 -171 -179 2170 -2172 0
628 -171 179 2170 2172 0
628 171 -179 -2170 -2172 0
628 171 179 -2170 2172 0
628 -171 179 -2170 -2172 0
628 171 179 2170 -2172 0
628 -171 -179 -2170 2172 0
628 171 -179 2170 2172 0
628 142 -153 -155 -2169 0
628 142 -153 155 2169 0
628 -142 153 -155 -2169 0
628 -142 153 155 2169 0
628 -142 -153 155 -2169 0
628 142 153 155 -2169 0
628 -142 -153 -155 2169 0
628 142 153 -155 2169 0
628 -349 -384 1084 -1086 0
628 -349 384 1084 1086 0
628 349 -384 -1084 -1086 0
628 349 384 -1084 1086 0
628 -349 384 -1084 -1086 0
628 349 384 1084 -1086 0
628 -349 -384 -1084 1086 0
628 349 -384 1084 1086 0
628 -345 -346 3413 -3415 0
628 -345 346 3413 3415 0
628 345 -346 -3413 -3415 0
628 345 346 -3413 3415 0
628 -345 346 -3413 -3415 0
628 345 346 3413 -3415 0
628 -345 -346 -3413 3415 0
628 345 -346 3413 3415 0
628 141 -153 -157 -2176 0
628 141 -153 157 2176 0
628 -141 153 -157 -2176 0
628 -141 153 157 2176 0
628 -141 -153 157 -2176 0
628 141 153 157 -2176 0
628 -141 -153 -157 2176 0
628 141 153 -157 2176 0
628 -17 -18 2301 -2303 0
628 -17 18 2301 2303 0
628 17 -18 -2301 -2303 0
628 17 18 -2301 2303 0
628 -17 18 -2301 -2303 0
628 17 18 2301 -2303 0
628 -17 -18 -2301 2303 0
628 17 -18 2301 2303 0
628 -24 -25 2755 -2757 0
628 -24 25 2755 2757 0
628 24 -25 -2755 -2757 0
628 24 25 -2755 2757 0
628 -24 25 -2755 -2757 0
628 24 25 2755 -2757 0
628 -24 -25 -2755 2757 0
628 24 -25 2755 2757 0
628 -33 -182 1547 -1549 0
628 -33 182 1547 1549 0
628 33 -182 -1547 -1549 0
628 33 182 -1547 1549 0
628 -33 182 -1547 -1549 0
628 33 182 1547 -1549 0
628 -33 -182 -1547 1549 0
628 33 -182 1547 1549 0
628 -158 -163 2182 -2184 0
628 -158 163 2182 2184 0
628 158 -163 -2182 -2184 0
628 158 163 -2182 2184 0
628 -158 163 -2182 -2184 0
628 158 163 2182 -2184 0
628 -158 -163 -2182 2184 0
628 158 -163 2182 2184 0
628 -47 -48 2296 -2298 0
628 -47 48 2296 2298 0
628 47 -48 -2296 -2298 0
628 47 48 -2296 2298 0
628 -47 48 -2296 -2298 0
628 47 48 2296 -2298 0
628 -47 -48 -2296 2298 0
628 47 -48 2296 2298 0
628 -169 -187 2177 -2179 0
628 -169 187 2177 2179 0
628 169 -187 -2177 -2179 0
628 169 187 -2177 2179 0
628 -169 187 -2177 -2179 0
628 169 187 2177 -2179 0
628 -169 -187 -2177 2179 0
628 169 -187 2177 2179 0
628 245 -278 -310 -1091 0
628 245 -278 310 1091 0
628 -245 278 -310 -1091 0
628 -245 278 310 1091 0
628 -245 -278 310 -1091 0
628 245 278 310 -1091 0
628 -245 -278 -310 1091 0
628 245 278 -310 1091 0
628 -385 -439 1092 -1094 0
628 -385 439 1092 1094 0
628 385 -439 -1092 -1094 0
628 385 439 -1092 1094 0
628 -385 439 -1092 -1094 0
628 385 439 1092 -1094 0
628 -385 -439 -1092 1094 0
628 385 -439 1092 1094 0
628 -43 -44 2292 -2294 0
628 -43 44 2292 2294 0
628 43 -44 -2292 -2294 0
628 43 44 -2292 2294 0
628 -43 44 -2292 -2294 0
628 43 44 2292 -2294 0
628 -43 -44 -2292 2294 0
628 43 -44 2292 2294 0
628 -325 -358 1146 -1148 0
628 -325 358 1146 1148 0
628 325 -358 -1146 -1148 0
628 325 358 -1146 1148 0
628 -325 358 -1146 -1148 0
628 325 358 1146 -1148 0
628 -325 -358 -1146 1148 0
628 325 -358 1146 1148 0
628 -170 -188 2184 -2186 0
628 -170 188 2184 2186 0
628 170 -188 -2184 -2186 0
628 170 188 -2184 2186 0
628 -170 188 -2184 -2186 0
628 170 188 2184 -2186 0
628 -170 -188 -2184 2186 0
628 170 -188 2184 2186 0
628 -11 -12 2288 -2290 0
628 -11 12 2288 2290 0
628 11 -12 -2288 -2290 0
628 11 12 -2288 2290 0
628 -11 12 -2288 -2290 0
628 11 12 2288 -2290 0
628 -11 -12 -2288 2290 0
628 11 -12 2288 2290 0
628 4 -8 -17 -1546 0
628 4 -8 17 1546 0
628 -4 8 -17 -1546 0
628 -4 8 17 1546 0
628 -4 -8 17 -1546 0
628 4 8 17 -1546 0
628 -4 -8 -17 1546 0
628 4 8 -17 1546 0
628 -164 -171 2190 -2192 0
628 -164 171 2190 2192 0
628 164 -171 -2190 -2192 0
628 164 171 -2190 2192 0
628 -164 171 -2190 -2192 0
628 164 171 2190 -2192 0
628 -164 -171 -2190 2192 0
628 164 -171 2190 2192 0
628 143 -148 -159 -2190 0
628 143 -148 159 2190 0
628 -143 148 -159 -2190 0
628 -143 148 159 2190 0
628 -143 -148 159 -2190 0
628 143 148 159 -2190 0
628 -143 -148 -159 2190 0
628 143 148 -159 2190 0
628 -81 -82 2779 -2781 0
628 -81 82 2779 2781 0
628 81 -82 -2779 -2781 0
628 81 82 -2779 2781 0
628 -81 82 -2779 -2781 0
628 81 82 2779 -2781 0
628 -81 -82 -2779 2781 0
628 81 -82 2779 2781 0
628 -283 -285 3134 -3136 0
628 -283 285 3134 3136 0
628 283 -285 -3134 -3136 0
628 283 285 -3134 3136 0
628 -283 285 -3134 -3136 0
628 283 285 3134 -3136 0
628 -283 -285 -3134 3136 0
628 283 -285 3134 3136 0
628 -38 -39 2280 -2282 0
628 -38 39 2280 2282 0
628 38 -39 -2280 -2282 0
628 38 39 -2280 2282 0
628 -38 39 -2280 -2282 0
628 38 39 2280 -2282 0
628 -38 -39 -2280 2282 0
628 38 -39 2280 2282 0
628 -317 -357 1139 -1141 0
628 -317 357 1139 1141 0
628 317 -357 -1139 -1141 0
628 317 357 -1139 1141 0
628 -317 357 -1139 -1141 0
628 317 357 1139 -1141 0
628 -317 -357 -1139 1141 0
628 317 -357 1139 1141 0
628 246 -286 -318 -1098 0
628 246 -286 318 1098 0
628 -246 286 -318 -1098 0
628 -246 286 318 1098 0
628 -246 -286 318 -1098 0
628 246 286 318 -1098 0
628 -246 -286 -318 1098 0
628 246 286 -318 1098 0
628 -5 -6 2275 -2277 0
628 -5 6 2275 2277 0
628 5 -6 -2275 -2277 0
628 5 6 -2275 2277 0
628 -5 6 -2275 -2277 0
628 5 6 2275 -2277 0
628 -5 -6 -2275 2277 0
628 5 -6 2275 2277 0
628 -172 -183 2198 -2200 0
628 -172 183 2198 2200 0
628 172 -183 -2198 -2200 0
628 172 183 -2198 2200 0
628 -172 183 -2198 -2200 0
628 172 183 2198 -2200 0
628 -172 -183 -2198 2200 0
628 172 -183 2198 2200 0
628 -3 -4 2273 -2275 0
628 -3 4 2273 2275 0
628 3 -4 -2273 -2275 0
628 3 4 -2273 2275 0
628 -3 4 -2273 -2275 0
628 3 4 2273 -2275 0
628 -3 -4 -2273 2275 0
628 3 -4 2273 2275 0
628 144 -149 -160 -2197 0
628 144 -149 160 2197 0
628 -144 149 -160 -2197 0
628 -144 149 160 2197 0
628 -144 -149 160 -2197 0
628 144 149 160 -2197 0
628 -144 -149 -160 2197 0
628 144 149 -160 2197 0
628 -351 -386 1098 -1100 0
628 -351 386 1098 1100 0
628 351 -386 -1098 -1100 0
628 351 386 -1098 1100 0
628 -351 386 -1098 -1100 0
628 351 386 1098 -1100 0
628 -351 -386 -1098 1100 0
628 351 -386 1098 1100 0
628 -164 -169 2267 -2269 0
628 -164 169 2267 2269 0
628 164 -169 -2267 -2269 0
628 164 169 -2267 2269 0
628 -164 169 -2267 -2269 0
628 164 169 2267 -2269 0
628 -164 -169 -2267 2269 0
628 164 -169 2267 2269 0
628 -356 -391 1133 -1135 0
628 -356 391 1133 1135 0
628 356 -391 -1133 -1135 0
628 356 391 -1133 1135 0
628 -356 391 -1133 -1135 0
628 356 391 1133 -1135 0
628 -356 -391 -1133 1135 0
628 356 -391 1133 1135 0
628 146 -152 -159 -2267 0
628 146 -152 159 2267 0
628 -146 152 -159 -2267 0
628 -146 152 159 2267 0
628 -146 -152 159 -2267 0
628 146 152 159 -2267 0
628 -146 -152 -159 2267 0
628 146 152 -159 2267 0
628 145 -150 -161 -2204 0
628 145 -150 161 2204 0
628 -145 150 -161 -2204 0
628 -145 150 161 2204 0
628 -145 -150 161 -2204 0
628 145 150 161 -2204 0
628 -145 -150 -161 2204 0
628 145 150 -161 2204 0
628 -83 -85 2781 -2783 0
628 -83 85 2781 2783 0
628 83 -85 -2781 -2783 0
628 83 85 -2781 2783 0
628 -83 85 -2781 -2783 0
628 83 85 2781 -2783 0
628 -83 -85 -2781 2783 0
628 83 -85 2781 2783 0
628 -163 -175 2260 -2262 0
628 -163 175 2260 2262 0
628 163 -175 -2260 -2262 0
628 163 175 -2260 2262 0
628 -163 175 -2260 -2262 0
628 163 175 2260 -2262 0
628 -163 -175 -2260 2262 0
628 163 -175 2260 2262 0
628 -25 -32 1609 -1611 0
628 -25 32 1609 1611 0
628 25 -32 -1609 -1611 0
628 25 32 -1609 1611 0
628 -25 32 -1609 -1611 0
628 25 32 1609 -1611 0
628 -25 -32 -1609 1611 0
628 25 -32 1609 1611 0
628 -166 -173 2204 -2206 0
628 -166 173 2204 2206 0
628 166 -173 -2204 -2206 0
628 166 173 -2204 2206 0
628 -166 173 -2204 -2206 0
628 166 173 2204 -2206 0
628 -166 -173 -2204 2206 0
628 166 -173 2204 2206 0
628 145 -151 -158 -2260 0
628 145 -151 158 2260 0
628 -145 151 -158 -2260 0
628 -145 151 158 2260 0
628 -145 -151 158 -2260 0
628 145 151 158 -2260 0
628 -145 -151 -158 2260 0
628 145 151 -158 2260 0
628 -353 -386 1385 -1387 0
628 -353 386 1385 1387 0
628 353 -386 -1385 -1387 0
628 353 386 -1385 1387 0
628 -353 386 -1385 -1387 0
628 353 386 1385 -1387 0
628 -353 -386 -1385 1387 0
628 353 -386 1385 1387 0
628 -157 -162 2252 -2254 0
628 -157 162 2252 2254 0
628 157 -162 -2252 -2254 0
628 157 162 -2252 2254 0
628 -157 162 -2252 -2254 0
628 157 162 2252 -2254 0
628 -157 -162 -2252 2254 0
628 157 -162 2252 2254 0
628 -355 -390 1126 -1128 0
628 -355 390 1126 1128 0
628 355 -390 -1126 -1128 0
628 355 390 -1126 1128 0
628 -355 390 -1126 -1128 0
628 355 390 1126 -1128 0
628 -355 -390 -1126 1128 0
628 355 -390 1126 1128 0
628 -282 -283 3097 -3099 0
628 -282 283 3097 3099 0
628 282 -283 -3097 -3099 0
628 282 283 -3097 3099 0
628 -282 283 -3097 -3099 0
628 282 283 3097 -3099 0
628 -282 -283 -3097 3099 0
628 282 -283 3097 3099 0
628 -319 -352 1104 -1106 0
628 -319 352 1104 1106 0
628 319 -352 -1104 -1106 0
628 319 352 -1104 1106 0
628 -319 352 -1104 -1106 0
628 319 352 1104 -1106 0
628 -319 -352 -1104 1106 0
628 319 -352 1104 1106 0
628 250 -283 -322 -1126 0
628 250 -283 322 1126 0
628 -250 283 -322 -1126 0
628 -250 283 322 1126 0
628 -250 -283 322 -1126 0
628 250 283 322 -1126 0
628 -250 -283 -322 1126 0
628 250 283 -322 1126 0
628 -394 -396 3399 -3401 0
628 -394 396 3399 3401 0
628 394 -396 -3399 -3401 0
628 394 396 -3399 3401 0
628 -394 396 -3399 -3401 0
628 394 396 3399 -3401 0
628 -394 -396 -3399 3401 0
628 394 -396 3399 3401 0
628 146 -151 -155 -2211 0
628 146 -151 155 2211 0
628 -146 151 -155 -2211 0
628 -146 151 155 2211 0
628 -146 -151 155 -2211 0
628 146 151 155 -2211 0
628 -146 -151 -155 2211 0
628 146 151 -155 2211 0
628 143 -149 -156 -2246 0
628 143 -149 156 2246 0
628 -143 149 -156 -2246 0
628 -143 149 156 2246 0
628 -143 -149 156 -2246 0
628 143 149 156 -2246 0
628 -143 -149 -156 2246 0
628 143 149 -156 2246 0
628 -174 -185 2212 -2214 0
628 -174 185 2212 2214 0
628 174 -185 -2212 -2214 0
628 174 185 -2212 2214 0
628 -174 185 -2212 -2214 0
628 174 185 2212 -2214 0
628 -174 -185 -2212 2214 0
628 174 -185 2212 2214 0
628 -387 -437 1106 -1108 0
628 -387 437 1106 1108 0
628 387 -437 -1106 -1108 0
628 387 437 -1106 1108 0
628 -387 437 -1106 -1108 0
628 387 437 1106 -1108 0
628 -387 -437 -1106 1108 0
628 387 -437 1106 1108 0
628 -168 -175 2218 -2220 0
628 -168 175 2218 2220 0
628 168 -175 -2218 -2220 0
628 168 175 -2218 2220 0
628 -168 175 -2218 -2220 0
628 168 175 2218 -2220 0
628 -168 -175 -2218 2220 0
628 168 -175 2218 2220 0
628 147 -152 -156 -2218 0
628 147 -152 156 2218 0
628 -147 152 -156 -2218 0
628 -147 152 156 2218 0
628 -147 -152 156 -2218 0
628 147 152 156 -2218 0
628 -147 -152 -156 2218 0
628 147 152 -156 2218 0
628 142 -148 -155 -2239 0
628 142 -148 155 2239 0
628 -142 148 -155 -2239 0
628 -142 148 155 2239 0
628 -142 -148 155 -2239 0
628 142 148 155 -2239 0
628 -142 -148 -155 2239 0
628 142 148 -155 2239 0
628 -321 -354 1118 -1120 0
628 -321 354 1118 1120 0
628 321 -354 -1118 -1120 0
628 321 354 -1118 1120 0
628 -321 354 -1118 -1120 0
628 321 354 1118 -1120 0
628 -321 -354 -1118 1120 0
628 321 -354 1118 1120 0
628 -73 -74 2776 -2778 0
628 -73 74 2776 2778 0
628 73 -74 -2776 -2778 0
628 73 74 -2776 2778 0
628 -73 74 -2776 -2778 0
628 73 74 2776 -2778 0
628 -73 -74 -2776 2778 0
628 73 -74 2776 2778 0
628 40 -44 -53 -1700 0
628 40 -44 53 1700 0
628 -40 44 -53 -1700 0
628 -40 44 53 1700 0
628 -40 -44 53 -1700 0
628 40 44 53 -1700 0
628 -40 -44 -53 1700 0
628 40 44 -53 1700 0
628 -166 -171 2232 -2234 0
628 -166 171 2232 2234 0
628 166 -171 -2232 -2234 0
628 166 171 -2232 2234 0
628 -166 171 -2232 -2234 0
628 166 171 2232 -2234 0
628 -166 -171 -2232 2234 0
628 166 -171 2232 2234 0
628 248 -281 -320 -1112 0
628 248 -281 320 1112 0
628 -248 281 -320 -1112 0
628 -248 281 320 1112 0
628 -248 -281 320 -1112 0
628 248 281 320 -1112 0
628 -248 -281 -320 1112 0
628 248 281 -320 1112 0
628 -60 -69 1700 -1702 0
628 -60 69 1700 1702 0
628 60 -69 -1700 -1702 0
628 60 69 -1700 1702 0
628 -60 69 -1700 -1702 0
628 60 69 1700 -1702 0
628 -60 -69 -1700 1702 0
628 60 -69 1700 1702 0
628 141 -154 -161 -2232 0
628 141 -154 161 2232 0
628 -141 154 -161 -2232 0
628 -141 154 161 2232 0
628 -141 -154 161 -2232 0
628 141 154 161 -2232 0
628 -141 -154 -161 2232 0
628 141 154 -161 2232 0
628 -290 -293 3092 -3094 0
628 -290 293 3092 3094 0
628 290 -293 -3092 -3094 0
628 290 293 -3092 3094 0
628 -290 293 -3092 -3094 0
628 290 293 3092 -3094 0
628 -290 -293 -3092 3094 0
628 290 -293 3092 3094 0
628 -170 -194 2226 -2228 0
628 -170 194 2226 2228 0
628 170 -194 -2226 -2228 0
628 170 194 -2226 2228 0
628 -170 194 -2226 -2228 0
628 170 194 2226 -2228 0
628 -170 -194 -2226 2228 0
628 170 -194 2226 2228 0
628 147 -153 -160 -2225 0
628 147 -153 160 2225 0
628 -147 153 -160 -2225 0
628 -147 153 160 2225 0
628 -147 -153 160 -2225 0
628 147 153 160 -2225 0
628 -147 -153 -160 2225 0
628 147 153 -160 2225 0
628 -353 -388 1112 -1114 0
628 -353 388 1112 1114 0
628 353 -388 -1112 -1114 0
628 353 388 -1112 1114 0
628 -353 388 -1112 -1114 0
628 353 388 1112 -1114 0
628 -353 -388 -1112 1114 0
628 353 -388 1112 1114 0
628 -381 -418 847 -849 0
628 -381 418 847 849 0
628 381 -418 -847 -849 0
628 381 418 -847 849 0
628 -381 418 -847 -849 0
628 381 418 847 -849 0
628 -381 -418 -847 849 0
628 381 -418 847 849 0
628 -54 -59 2772 -2774 0
628 -54 59 2772 2774 0
628 54 -59 -2772 -2774 0
628 54 59 -2772 2774 0
628 -54 59 -2772 -2774 0
628 54 59 2772 -2774 0
628 -54 -59 -2772 2774 0
628 54 -59 2772 2774 0
628 -43 -45 2768 -2770 0
628 -43 45 2768 2770 0
628 43 -45 -2768 -2770 0
628 43 45 -2768 2770 0
628 -43 45 -2768 -2770 0
628 43 45 2768 -2770 0
628 -43 -45 -2768 2770 0
628 43 -45 2768 2770 0
628 -389 -439 1120 -1122 0
628 -389 439 1120 1122 0
628 389 -439 -1120 -1122 0
628 389 439 -1120 1122 0
628 -389 439 -1120 -1122 0
628 389 439 1120 -1122 0
628 -389 -439 -1120 1122 0
628 389 -439 1120 1122 0
628 -172 -196 2240 -2242 0
628 -172 196 2240 2242 0
628 172 -196 -2240 -2242 0
628 172 196 -2240 2242 0
628 -172 196 -2240 -2242 0
628 172 196 2240 -2242 0
628 -172 -196 -2240 2242 0
628 172 -196 2240 2242 0
628 -168 -173 2246 -2248 0
628 -168 173 2246 2248 0
628 168 -173 -2246 -2248 0
628 168 173 -2246 2248 0
628 -168 173 -2246 -2248 0
628 168 173 2246 -2248 0
628 -168 -173 -2246 2248 0
628 168 -173 2246 2248 0
628 -309 -344 845 -847 0
628 -309 344 845 847 0
628 309 -344 -845 -847 0
628 309 344 -845 847 0
628 -309 344 -845 -847 0
628 309 344 845 -847 0
628 -309 -344 -845 847 0
628 309 -344 845 847 0
628 -174 -191 2254 -2256 0
628 -174 191 2254 2256 0
628 174 -191 -2254 -2256 0
628 174 191 -2254 2256 0
628 -174 191 -2254 -2256 0
628 174 191 2254 -2256 0
628 -174 -191 -2254 2256 0
628 174 -191 2254 2256 0
628 -34 -35 2764 -2766 0
628 -34 35 2764 2766 0
628 34 -35 -2764 -2766 0
628 34 35 -2764 2766 0
628 -34 35 -2764 -2766 0
628 34 35 2764 -2766 0
628 -34 -35 -2764 2766 0
628 34 -35 2764 2766 0
628 251 -285 -320 -1385 0
628 251 -285 320 1385 0
628 -251 285 -320 -1385 0
628 -251 285 320 1385 0
628 -251 -285 320 -1385 0
628 251 285 320 -1385 0
628 -251 -285 -320 1385 0
628 251 285 -320 1385 0
628 -291 -293 3086 -3088 0
628 -291 293 3086 3088 0
628 291 -293 -3086 -3088 0
628 291 293 -3086 3088 0
628 -291 293 -3086 -3088 0
628 291 293 3086 -3088 0
628 -291 -293 -3086 3088 0
628 291 -293 3086 3088 0
628 -279 -280 3081 -3083 0
628 -279 280 3081 3083 0
628 279 -280 -3081 -3083 0
628 279 280 -3081 3083 0
628 -279 280 -3081 -3083 0
628 279 280 3081 -3083 0
628 -279 -280 -3081 3083 0
628 279 -280 3081 3083 0
628 -362 -363 3389 -3391 0
628 -362 363 3389 3391 0
628 362 -363 -3389 -3391 0
628 362 363 -3389 3391 0
628 -362 363 -3389 -3391 0
628 362 363 3389 -3391 0
628 -362 -363 -3389 3391 0
628 362 -363 3389 3391 0
628 251 -284 -316 -1133 0
628 251 -284 316 1133 0
628 -251 284 -316 -1133 0
628 -251 284 316 1133 0
628 -251 -284 316 -1133 0
628 251 284 316 -1133 0
628 -251 -284 -316 1133 0
628 251 284 -316 1133 0
628 274 -275 -277 -3080 0
628 274 -275 277 3080 0
628 -274 275 -277 -3080 0
628 -274 275 277 3080 0
628 -274 -275 277 -3080 0
628 274 275 277 -3080 0
628 -274 -275 -277 3080 0
628 274 275 -277 3080 0
628 -353 -358 3385 -3387 0
628 -353 358 3385 3387 0
628 353 -358 -3385 -3387 0
628 353 358 -3385 3387 0
628 -353 358 -3385 -3387 0
628 353 358 3385 -3387 0
628 -353 -358 -3385 3387 0
628 353 -358 3385 3387 0
628 -36 -37 2278 -2280 0
628 -36 37 2278 2280 0
628 36 -37 -2278 -2280 0
628 36 37 -2278 2280 0
628 -36 37 -2278 -2280 0
628 36 37 2278 -2280 0
628 -36 -37 -2278 2280 0
628 36 -37 2278 2280 0
628 -40 -41 2282 -2284 0
628 -40 41 2282 2284 0
628 40 -41 -2282 -2284 0
628 40 41 -2282 2284 0
628 -40 41 -2282 -2284 0
628 40 41 2282 -2284 0
628 -40 -41 -2282 2284 0
628 40 -41 2282 2284 0
628 -23 -32 1539 -1541 0
628 -23 32 1539 1541 0
628 23 -32 -1539 -1541 0
628 23 32 -1539 1541 0
628 -23 32 -1539 -1541 0
628 23 32 1539 -1541 0
628 -23 -32 -1539 1541 0
628 23 -32 1539 1541 0
628 -392 -435 1141 -1143 0
628 -392 435 1141 1143 0
628 392 -435 -1141 -1143 0
628 392 435 -1141 1143 0
628 -392 435 -1141 -1143 0
628 392 435 1141 -1143 0
628 -392 -435 -1141 1143 0
628 392 -435 1141 1143 0
628 8 -9 -10 -2288 0
628 8 -9 10 2288 0
628 -8 9 -10 -2288 0
628 -8 9 10 2288 0
628 -8 -9 10 -2288 0
628 8 9 10 -2288 0
628 -8 -9 -10 2288 0
628 8 9 -10 2288 0
628 275 -284 -288 -3074 0
628 275 -284 288 3074 0
628 -275 284 -288 -3074 0
628 -275 284 288 3074 0
628 -275 -284 288 -3074 0
628 275 284 288 -3074 0
628 -275 -284 -288 3074 0
628 275 284 -288 3074 0
628 3 -14 -16 -1539 0
628 3 -14 16 1539 0
628 -3 14 -16 -1539 0
628 -3 14 16 1539 0
628 -3 -14 16 -1539 0
628 3 14 16 -1539 0
628 -3 -14 -16 1539 0
628 3 14 -16 1539 0
628 -13 -14 2290 -2292 0
628 -13 14 2290 2292 0
628 13 -14 -2290 -2292 0
628 13 14 -2290 2292 0
628 -13 14 -2290 -2292 0
628 13 14 2290 -2292 0
628 -13 -14 -2290 2292 0
628 13 -14 2290 2292 0
628 -45 -46 2294 -2296 0
628 -45 46 2294 2296 0
628 45 -46 -2294 -2296 0
628 45 46 -2294 2296 0
628 -45 46 -2294 -2296 0
628 45 46 2294 -2296 0
628 -45 -46 -2294 2296 0
628 45 -46 2294 2296 0
628 -30 -31 2760 -2762 0
628 -30 31 2760 2762 0
628 30 -31 -2760 -2762 0
628 30 31 -2760 2762 0
628 -30 31 -2760 -2762 0
628 30 31 2760 -2762 0
628 -30 -31 -2760 2762 0
628 30 -31 2760 2762 0
628 -393 -441 1148 -1150 0
628 -393 441 1148 1150 0
628 393 -441 -1148 -1150 0
628 393 441 -1148 1150 0
628 -393 441 -1148 -1150 0
628 393 441 1148 -1150 0
628 -393 -441 -1148 1150 0
628 393 -441 1148 1150 0
628 -47 -50 2712 -2714 0
628 -47 50 2712 2714 0
628 47 -50 -2712 -2714 0
628 47 50 -2712 2714 0
628 -47 50 -2712 -2714 0
628 47 50 2712 -2714 0
628 -47 -50 -2712 2714 0
628 47 -50 2712 2714 0
628 -96 -99 2737 -2739 0
628 -96 99 2737 2739 0
628 96 -99 -2737 -2739 0
628 96 99 -2737 2739 0
628 -96 99 -2737 -2739 0
628 96 99 2737 -2739 0
628 -96 -99 -2737 2739 0
628 96 -99 2737 2739 0
628 -291 -293 3068 -3070 0
628 -291 293 3068 3070 0
628 291 -293 -3068 -3070 0
628 291 293 -3068 3070 0
628 -291 293 -3068 -3070 0
628 291 293 3068 -3070 0
628 -291 -293 -3068 3070 0
628 291 -293 3068 3070 0
628 -27 -28 2318 -2320 0
628 -27 28 2318 2320 0
628 27 -28 -2318 -2320 0
628 27 28 -2318 2320 0
628 -27 28 -2318 -2320 0
628 27 28 2318 -2320 0
628 -27 -28 -2318 2320 0
628 27 -28 2318 2320 0
628 -21 -50 2305 -2307 0
628 -21 50 2305 2307 0
628 21 -50 -2305 -2307 0
628 21 50 -2305 2307 0
628 -21 50 -2305 -2307 0
628 21 50 2305 -2307 0
628 -21 -50 -2305 2307 0
628 21 -50 2305 2307 0
628 254 -294 -326 -1154 0
628 254 -294 326 1154 0
628 -254 294 -326 -1154 0
628 -254 294 326 1154 0
628 -254 -294 326 -1154 0
628 254 294 326 -1154 0
628 -254 -294 -326 1154 0
628 254 294 -326 1154 0
628 -19 -20 2303 -2305 0
628 -19 20 2303 2305 0
628 19 -20 -2303 -2305 0
628 19 20 -2303 2305 0
628 -19 20 -2303 -2305 0
628 19 20 2303 -2305 0
628 -19 -20 -2303 2305 0
628 19 -20 2303 2305 0
628 -53 -54 2309 -2311 0
628 -53 54 2309 2311 0
628 53 -54 -2309 -2311 0
628 53 54 -2309 2311 0
628 -53 54 -2309 -2311 0
628 53 54 2309 -2311 0
628 -53 -54 -2309 2311 0
628 53 -54 2309 2311 0
628 -374 -407 1532 -1534 0
628 -374 407 1532 1534 0
628 374 -407 -1532 -1534 0
628 374 407 -1532 1534 0
628 -374 407 -1532 -1534 0
628 374 407 1532 -1534 0
628 -374 -407 -1532 1534 0
628 374 -407 1532 1534 0
628 -51 -58 1685 -1687 0
628 -51 58 1685 1687 0
628 51 -58 -1685 -1687 0
628 51 58 -1685 1687 0
628 -51 58 -1685 -1687 0
628 51 58 1685 -1687 0
628 -51 -58 -1685 1687 0
628 51 -58 1685 1687 0
628 22 -23 -24 -2316 0
628 22 -23 24 2316 0
628 -22 23 -24 -2316 0
628 -22 23 24 2316 0
628 -22 -23 24 -2316 0
628 22 23 24 -2316 0
628 -22 -23 -24 2316 0
628 22 23 -24 2316 0
628 -380 -417 840 -842 0
628 -380 417 840 842 0
628 380 -417 -840 -842 0
628 380 417 -840 842 0
628 -380 417 -840 -842 0
628 380 417 840 -842 0
628 -380 -417 -840 842 0
628 380 -417 840 842 0
628 -323 -326 3376 -3378 0
628 -323 326 3376 3378 0
628 323 -326 -3376 -3378 0
628 323 326 -3376 3378 0
628 -323 326 -3376 -3378 0
628 323 326 3376 -3378 0
628 -323 -326 -3376 3378 0
628 323 -326 3376 3378 0
628 -59 -60 2322 -2324 0
628 -59 60 2322 2324 0
628 59 -60 -2322 -2324 0
628 59 60 -2322 2324 0
628 -59 60 -2322 -2324 0
628 59 60 2322 -2324 0
628 -59 -60 -2322 2324 0
628 59 -60 2322 2324 0
628 -360 -395 1161 -1163 0
628 -360 395 1161 1163 0
628 360 -395 -1161 -1163 0
628 360 395 -1161 1163 0
628 -360 395 -1161 -1163 0
628 360 395 1161 -1163 0
628 -360 -395 -1161 1163 0
628 360 -395 1161 1163 0
628 -372 -412 1518 -1520 0
628 -372 412 1518 1520 0
628 372 -412 -1518 -1520 0
628 372 412 -1518 1520 0
628 -372 412 -1518 -1520 0
628 372 412 1518 -1520 0
628 -372 -412 -1518 1520 0
628 372 -412 1518 1520 0
628 -30 -195 1638 -1640 0
628 -30 195 1638 1640 0
628 30 -195 -1638 -1640 0
628 30 195 -1638 1640 0
628 -30 195 -1638 -1640 0
628 30 195 1638 -1640 0
628 -30 -195 -1638 1640 0
628 30 -195 1638 1640 0
628 -34 -192 1666 -1668 0
628 -34 192 1666 1668 0
628 34 -192 -1666 -1668 0
628 34 192 -1666 1668 0
628 -34 192 -1666 -1668 0
628 34 192 1666 -1668 0
628 -34 -192 -1666 1668 0
628 34 -192 1666 1668 0
628 -351 -353 3268 -3270 0
628 -351 353 3268 3270 0
628 351 -353 -3268 -3270 0
628 351 353 -3268 3270 0
628 -351 353 -3268 -3270 0
628 351 353 3268 -3270 0
628 -351 -353 -3268 3270 0
628 351 -353 3268 3270 0
628 -74 -75 2337 -2339 0
628 -74 75 2337 2339 0
628 74 -75 -2337 -2339 0
628 74 75 -2337 2339 0
628 -74 75 -2337 -2339 0
628 74 75 2337 -2339 0
628 -74 -75 -2337 2339 0
628 74 -75 2337 2339 0
628 -72 -73 2335 -2337 0
628 -72 73 2335 2337 0
628 72 -73 -2335 -2337 0
628 72 73 -2335 2337 0
628 -72 73 -2335 -2337 0
628 72 73 2335 -2337 0
628 -72 -73 -2335 2337 0
628 72 -73 2335 2337 0
628 8 -9 -10 -2344 0
628 8 -9 10 2344 0
628 -8 9 -10 -2344 0
628 -8 9 10 2344 0
628 -8 -9 10 -2344 0
628 8 9 10 -2344 0
628 -8 -9 -10 2344 0
628 8 9 -10 2344 0
628 272 -306 -341 -1532 0
628 272 -306 341 1532 0
628 -272 306 -341 -1532 0
628 -272 306 341 1532 0
628 -272 -306 341 -1532 0
628 272 306 341 -1532 0
628 -272 -306 -341 1532 0
628 272 306 -341 1532 0
628 -13 -14 2346 -2348 0
628 -13 14 2346 2348 0
628 13 -14 -2346 -2348 0
628 13 14 -2346 2348 0
628 -13 14 -2346 -2348 0
628 13 14 2346 -2348 0
628 -13 -14 -2346 2348 0
628 13 -14 2346 2348 0
628 -313 -314 3371 -3373 0
628 -313 314 3371 3373 0
628 313 -314 -3371 -3373 0
628 313 314 -3371 3373 0
628 -313 314 -3371 -3373 0
628 313 314 3371 -3373 0
628 -313 -314 -3371 3373 0
628 313 -314 3371 3373 0
628 -20 -21 2752 -2754 0
628 -20 21 2752 2754 0
628 20 -21 -2752 -2754 0
628 20 21 -2752 2754 0
628 -20 21 -2752 -2754 0
628 20 21 2752 -2754 0
628 -20 -21 -2752 2754 0
628 20 -21 2752 2754 0
628 -397 -438 1176 -1178 0
628 -397 438 1176 1178 0
628 397 -438 -1176 -1178 0
628 397 438 -1176 1178 0
628 -397 438 -1176 -1178 0
628 397 438 1176 -1178 0
628 -397 -438 -1176 1178 0
628 397 -438 1176 1178 0
628 -361 -362 3271 -3273 0
628 -361 362 3271 3273 0
628 361 -362 -3271 -3273 0
628 361 362 -3271 3273 0
628 -361 362 -3271 -3273 0
628 361 362 3271 -3273 0
628 -361 -362 -3271 3273 0
628 361 -362 3271 3273 0
628 -18 -19 2358 -2360 0
628 -18 19 2358 2360 0
628 18 -19 -2358 -2360 0
628 18 19 -2358 2360 0
628 -18 19 -2358 -2360 0
628 18 19 2358 -2360 0
628 -18 -19 -2358 2360 0
628 18 -19 2358 2360 0
628 -67 -177 1687 -1689 0
628 -67 177 1687 1689 0
628 67 -177 -1687 -1689 0
628 67 177 -1687 1689 0
628 -67 177 -1687 -1689 0
628 67 177 1687 -1689 0
628 -67 -177 -1687 1689 0
628 67 -177 1687 1689 0
628 -85 -86 2362 -2364 0
628 -85 86 2362 2364 0
628 85 -86 -2362 -2364 0
628 85 86 -2362 2364 0
628 -85 86 -2362 -2364 0
628 85 86 2362 -2364 0
628 -85 -86 -2362 2364 0
628 85 -86 2362 2364 0
628 258 -291 -323 -1182 0
628 258 -291 323 1182 0
628 -258 291 -323 -1182 0
628 -258 291 323 1182 0
628 -258 -291 323 -1182 0
628 258 291 323 -1182 0
628 -258 -291 -323 1182 0
628 258 291 -323 1182 0
628 2 -4 -9 -2746 0
628 2 -4 9 2746 0
628 -2 4 -9 -2746 0
628 -2 4 9 2746 0
628 -2 -4 9 -2746 0
628 2 4 9 -2746 0
628 -2 -4 -9 2746 0
628 2 4 -9 2746 0
628 -16 -18 2749 -2751 0
628 -16 18 2749 2751 0
628 16 -18 -2749 -2751 0
628 16 18 -2749 2751 0
628 -16 18 -2749 -2751 0
628 16 18 2749 -2751 0
628 -16 -18 -2749 2751 0
628 16 -18 2749 2751 0
628 -52 -59 1692 -1694 0
628 -52 59 1692 1694 0
628 52 -59 -1692 -1694 0
628 52 59 -1692 1694 0
628 -52 59 -1692 -1694 0
628 52 59 1692 -1694 0
628 -52 -59 -1692 1694 0
628 52 -59 1692 1694 0
628 -413 -458 1526 -1528 0
628 -413 458 1526 1528 0
628 413 -458 -1526 -1528 0
628 413 458 -1526 1528 0
628 -413 458 -1526 -1528 0
628 413 458 1526 -1528 0
628 -413 -458 -1526 1528 0
628 413 -458 1526 1528 0
628 -292 -293 3044 -3046 0
628 -292 293 3044 3046 0
628 292 -293 -3044 -3046 0
628 292 293 -3044 3046 0
628 -292 293 -3044 -3046 0
628 292 293 3044 -3046 0
628 -292 -293 -3044 3046 0
628 292 -293 3044 3046 0
628 -94 -95 2378 -2380 0
628 -94 95 2378 2380 0
628 94 -95 -2378 -2380 0
628 94 95 -2378 2380 0
628 -94 95 -2378 -2380 0
628 94 95 2378 -2380 0
628 -94 -95 -2378 2380 0
628 94 -95 2378 2380 0
628 -364 -399 1189 -1191 0
628 -364 399 1189 1191 0
628 364 -399 -1189 -1191 0
628 364 399 -1189 1191 0
628 -364 399 -1189 -1191 0
628 364 399 1189 -1191 0
628 -364 -399 -1189 1191 0
628 364 -399 1189 1191 0
628 -73 -75 2386 -2388 0
628 -73 75 2386 2388 0
628 73 -75 -2386 -2388 0
628 73 75 -2386 2388 0
628 -73 75 -2386 -2388 0
628 73 75 2386 -2388 0
628 -73 -75 -2386 2388 0
628 73 -75 2386 2388 0
628 7 -37 -72 -2392 0
628 7 -37 72 2392 0
628 -7 37 -72 -2392 0
628 -7 37 72 2392 0
628 -7 -37 72 -2392 0
628 7 37 72 -2392 0
628 -7 -37 -72 2392 0
628 7 37 -72 2392 0
628 -288 -289 3066 -3068 0
628 -288 289 3066 3068 0
628 288 -289 -3066 -3068 0
628 288 289 -3066 3068 0
628 -288 289 -3066 -3068 0
628 288 289 3066 -3068 0
628 -288 -289 -3066 3068 0
628 288 -289 3066 3068 0
628 -12 -14 2747 -2749 0
628 -12 14 2747 2749 0
628 12 -14 -2747 -2749 0
628 12 14 -2747 2749 0
628 -12 14 -2747 -2749 0
628 12 14 2747 -2749 0
628 -12 -14 -2747 2749 0
628 12 -14 2747 2749 0
628 271 -305 -340 -1525 0
628 271 -305 340 1525 0
628 -271 305 -340 -1525 0
628 -271 305 340 1525 0
628 -271 -305 340 -1525 0
628 271 305 340 -1525 0
628 -271 -305 -340 1525 0
628 271 305 -340 1525 0
628 -279 -280 3063 -3065 0
628 -279 280 3063 3065 0
628 279 -280 -3063 -3065 0
628 279 280 -3063 3065 0
628 -279 280 -3063 -3065 0
628 279 280 3063 -3065 0
628 -279 -280 -3063 3065 0
628 279 -280 3063 3065 0
628 -291 -293 3056 -3058 0
628 -291 293 3056 3058 0
628 291 -293 -3056 -3058 0
628 291 293 -3056 3058 0
628 -291 293 -3056 -3058 0
628 291 293 3056 -3058 0
628 -291 -293 -3056 3058 0
628 291 -293 3056 3058 0
628 -281 -283 3363 -3365 0
628 -281 283 3363 3365 0
628 281 -283 -3363 -3365 0
628 281 283 -3363 3365 0
628 -281 283 -3363 -3365 0
628 281 283 3363 -3365 0
628 -281 -283 -3363 3365 0
628 281 -283 3363 3365 0
628 -6 -7 2399 -2401 0
628 -6 7 2399 2401 0
628 6 -7 -2399 -2401 0
628 6 7 -2399 2401 0
628 -6 7 -2399 -2401 0
628 6 7 2399 -2401 0
628 -6 -7 -2399 2401 0
628 6 -7 2399 2401 0
628 -38 -71 2401 -2403 0
628 -38 71 2401 2403 0
628 38 -71 -2401 -2403 0
628 38 71 -2401 2403 0
628 -38 71 -2401 -2403 0
628 38 71 2401 -2403 0
628 -38 -71 -2401 2403 0
628 38 -71 2401 2403 0
628 261 -301 -333 -1203 0
628 261 -301 333 1203 0
628 -261 301 -333 -1203 0
628 -261 301 333 1203 0
628 -261 -301 333 -1203 0
628 261 301 333 -1203 0
628 -261 -301 -333 1203 0
628 261 301 -333 1203 0
628 -391 -461 1372 -1374 0
628 -391 461 1372 1374 0
628 391 -461 -1372 -1374 0
628 391 461 -1372 1374 0
628 -391 461 -1372 -1374 0
628 391 461 1372 -1374 0
628 -391 -461 -1372 1374 0
628 391 -461 1372 1374 0
628 -74 -76 2410 -2412 0
628 -74 76 2410 2412 0
628 74 -76 -2410 -2412 0
628 74 76 -2410 2412 0
628 -74 76 -2410 -2412 0
628 74 76 2410 -2412 0
628 -74 -76 -2410 2412 0
628 74 -76 2410 2412 0
628 -277 -278 3360 -3362 0
628 -277 278 3360 3362 0
628 277 -278 -3360 -3362 0
628 277 278 -3360 3362 0
628 -277 278 -3360 -3362 0
628 277 278 3360 -3362 0
628 -277 -278 -3360 3362 0
628 277 -278 3360 3362 0
628 249 -283 -318 -1371 0
628 249 -283 318 1371 0
628 -249 283 -318 -1371 0
628 -249 283 318 1371 0
628 -249 -283 318 -1371 0
628 249 283 318 -1371 0
628 -249 -283 -318 1371 0
628 249 283 -318 1371 0
628 -7 -40 2418 -2420 0
628 -7 40 2418 2420 0
628 7 -40 -2418 -2420 0
628 7 40 -2418 2420 0
628 -7 40 -2418 -2420 0
628 7 40 2418 -2420 0
628 -7 -40 -2418 2420 0
628 7 -40 2418 2420 0
628 262 -295 -334 -1210 0
628 262 -295 334 1210 0
628 -262 295 -334 -1210 0
628 -262 295 334 1210 0
628 -262 -295 334 -1210 0
628 262 295 334 -1210 0
628 -262 -295 -334 1210 0
628 262 295 -334 1210 0
628 -74 -76 2422 -2424 0
628 -74 76 2422 2424 0
628 74 -76 -2422 -2424 0
628 74 76 -2422 2424 0
628 -74 76 -2422 -2424 0
628 74 76 2422 -2424 0
628 -74 -76 -2422 2424 0
628 74 -76 2422 2424 0
628 -29 -194 1680 -1682 0
628 -29 194 1680 1682 0
628 29 -194 -1680 -1682 0
628 29 194 -1680 1682 0
628 -29 194 -1680 -1682 0
628 29 194 1680 -1682 0
628 -29 -194 -1680 1682 0
628 29 -194 1680 1682 0
628 -104 -176 2740 -2742 0
628 -104 176 2740 2742 0
628 104 -176 -2740 -2742 0
628 104 176 -2740 2742 0
628 -104 176 -2740 -2742 0
628 104 176 2740 -2742 0
628 -104 -176 -2740 2742 0
628 104 -176 2740 2742 0
628 280 -282 -289 -3056 0
628 280 -282 289 3056 0
628 -280 282 -289 -3056 0
628 -280 282 289 3056 0
628 -280 -282 289 -3056 0
628 280 282 289 -3056 0
628 -280 -282 -289 3056 0
628 280 282 -289 3056 0
628 -356 -389 1357 -1359 0
628 -356 389 1357 1359 0
628 356 -389 -1357 -1359 0
628 356 389 -1357 1359 0
628 -356 389 -1357 -1359 0
628 356 389 1357 -1359 0
628 -356 -389 -1357 1359 0
628 356 -389 1357 1359 0
628 -90 -93 2733 -2735 0
628 -90 93 2733 2735 0
628 90 -93 -2733 -2735 0
628 90 93 -2733 2735 0
628 -90 93 -2733 -2735 0
628 90 93 2733 -2735 0
628 -90 -93 -2733 2735 0
628 90 -93 2733 2735 0
628 -277 -278 3022 -3024 0
628 -277 278 3022 3024 0
628 277 -278 -3022 -3024 0
628 277 278 -3022 3024 0
628 -277 278 -3022 -3024 0
628 277 278 3022 -3024 0
628 -277 -278 -3022 3024 0
628 277 -278 3022 3024 0
628 -71 -73 2438 -2440 0
628 -71 73 2438 2440 0
628 71 -73 -2438 -2440 0
628 71 73 -2438 2440 0
628 -71 73 -2438 -2440 0
628 71 73 2438 -2440 0
628 -71 -73 -2438 2440 0
628 71 -73 2438 2440 0
628 -335 -368 1216 -1218 0
628 -335 368 1216 1218 0
628 335 -368 -1216 -1218 0
628 335 368 -1216 1218 0
628 -335 368 -1216 -1218 0
628 335 368 1216 -1218 0
628 -335 -368 -1216 1218 0
628 335 -368 1216 1218 0
628 -18 -23 1671 -1673 0
628 -18 23 1671 1673 0
628 18 -23 -1671 -1673 0
628 18 23 -1671 1673 0
628 -18 23 -1671 -1673 0
628 18 23 1671 -1673 0
628 -18 -23 -1671 1673 0
628 18 -23 1671 1673 0
628 -80 -82 2446 -2448 0
628 -80 82 2446 2448 0
628 80 -82 -2446 -2448 0
628 80 82 -2446 2448 0
628 -80 82 -2446 -2448 0
628 80 82 2446 -2448 0
628 -80 -82 -2446 2448 0
628 80 -82 2446 2448 0
628 -379 -416 833 -835 0
628 -379 416 833 835 0
628 379 -416 -833 -835 0
628 379 416 -833 835 0
628 -379 416 -833 -835 0
628 379 416 833 -835 0
628 -379 -416 -833 835 0
628 379 -416 833 835 0
628 6 -12 -19 -1679 0
628 6 -12 19 1679 0
628 -6 12 -19 -1679 0
628 -6 12 19 1679 0
628 -6 -12 19 -1679 0
628 6 12 19 -1679 0
628 -6 -12 -19 1679 0
628 6 12 -19 1679 0
628 -290 -291 3042 -3044 0
628 -290 291 3042 3044 0
628 290 -291 -3042 -3044 0
628 290 291 -3042 3044 0
628 -290 291 -3042 -3044 0
628 290 291 3042 -3044 0
628 -290 -291 -3042 3044 0
628 290 -291 3042 3044 0
628 -369 -404 1224 -1226 0
628 -369 404 1224 1226 0
628 369 -404 -1224 -1226 0
628 369 404 -1224 1226 0
628 -369 404 -1224 -1226 0
628 369 404 1224 -1226 0
628 -369 -404 -1224 1226 0
628 369 -404 1224 1226 0
628 -253 -255 3355 -3357 0
628 -253 255 3355 3357 0
628 253 -255 -3355 -3357 0
628 253 255 -3355 3357 0
628 -253 255 -3355 -3357 0
628 253 255 3355 -3357 0
628 -253 -255 -3355 3357 0
628 253 -255 3355 3357 0
628 -278 -279 3037 -3039 0
628 -278 279 3037 3039 0
628 278 -279 -3037 -3039 0
628 278 279 -3037 3039 0
628 -278 279 -3037 -3039 0
628 278 279 3037 -3039 0
628 -278 -279 -3037 3039 0
628 278 -279 3037 3039 0
628 270 -304 -339 -1518 0
628 270 -304 339 1518 0
628 -270 304 -339 -1518 0
628 -270 304 339 1518 0
628 -270 -304 339 -1518 0
628 270 304 339 -1518 0
628 -270 -304 -339 1518 0
628 270 304 -339 1518 0
628 -280 -288 3039 -3041 0
628 -280 288 3039 3041 0
628 280 -288 -3039 -3041 0
628 280 288 -3039 3041 0
628 -280 288 -3039 -3041 0
628 280 288 3039 -3041 0
628 -280 -288 -3039 3041 0
628 280 -288 3039 3041 0
628 265 -298 -330 -1231 0
628 265 -298 330 1231 0
628 -265 298 -330 -1231 0
628 -265 298 330 1231 0
628 -265 -298 330 -1231 0
628 265 298 330 -1231 0
628 -265 -298 -330 1231 0
628 265 298 -330 1231 0
628 -357 -390 1364 -1366 0
628 -357 390 1364 1366 0
628 357 -390 -1364 -1366 0
628 357 390 -1364 1366 0
628 -357 390 -1364 -1366 0
628 357 390 1364 -1366 0
628 -357 -390 -1364 1366 0
628 357 -390 1364 1366 0
628 -88 -89 2731 -2733 0
628 -88 89 2731 2733 0
628 88 -89 -2731 -2733 0
628 88 89 -2731 2733 0
628 -88 89 -2731 -2733 0
628 88 89 2731 -2733 0
628 -88 -89 -2731 2733 0
628 88 -89 2731 2733 0
628 -405 -439 1232 -1234 0
628 -405 439 1232 1234 0
628 405 -439 -1232 -1234 0
628 405 439 -1232 1234 0
628 -405 439 -1232 -1234 0
628 405 439 1232 -1234 0
628 -405 -439 -1232 1234 0
628 405 -439 1232 1234 0
628 -81 -83 2470 -2472 0
628 -81 83 2470 2472 0
628 81 -83 -2470 -2472 0
628 81 83 -2470 2472 0
628 -81 83 -2470 -2472 0
628 81 83 2470 -2472 0
628 -81 -83 -2470 2472 0
628 81 -83 2470 2472 0
628 274 -275 -276 -3036 0
628 274 -275 276 3036 0
628 -274 275 -276 -3036 0
628 -274 275 276 3036 0
628 -274 -275 276 -3036 0
628 274 275 276 -3036 0
628 -274 -275 -276 3036 0
628 274 275 -276 3036 0
628 -362 -363 3345 -3347 0
628 -362 363 3345 3347 0
628 362 -363 -3345 -3347 0
628 362 363 -3345 3347 0
628 -362 363 -3345 -3347 0
628 362 363 3345 -3347 0
628 -362 -363 -3345 3347 0
628 362 -363 3345 3347 0
628 -81 -83 2482 -2484 0
628 -81 83 2482 2484 0
628 81 -83 -2482 -2484 0
628 81 83 -2482 2484 0
628 -81 83 -2482 -2484 0
628 81 83 2482 -2484 0
628 -81 -83 -2482 2484 0
628 81 -83 2482 2484 0
628 -411 -456 1512 -1514 0
628 -411 456 1512 1514 0
628 411 -456 -1512 -1514 0
628 411 456 -1512 1514 0
628 -411 456 -1512 -1514 0
628 411 456 1512 -1514 0
628 -411 -456 -1512 1514 0
628 411 -456 1512 1514 0
628 11 -48 -78 -2488 0
628 11 -48 78 2488 0
628 -11 48 -78 -2488 0
628 -11 48 78 2488 0
628 -11 -48 78 -2488 0
628 11 48 78 -2488 0
628 -11 -48 -78 2488 0
628 11 48 -78 2488 0
628 -82 -83 2728 -2730 0
628 -82 83 2728 2730 0
628 82 -83 -2728 -2730 0
628 82 83 -2728 2730 0
628 -82 83 -2728 -2730 0
628 82 83 2728 -2730 0
628 -82 -83 -2728 2730 0
628 82 -83 2728 2730 0
628 -339 -372 1244 -1246 0
628 -339 372 1244 1246 0
628 339 -372 -1244 -1246 0
628 339 372 -1244 1246 0
628 -339 372 -1244 -1246 0
628 339 372 1244 -1246 0
628 -339 -372 -1244 1246 0
628 339 -372 1244 1246 0
628 -283 -284 3028 -3030 0
628 -283 284 3028 3030 0
628 283 -284 -3028 -3030 0
628 283 284 -3028 3030 0
628 -283 284 -3028 -3030 0
628 283 284 3028 -3030 0
628 -283 -284 -3028 3030 0
628 283 -284 3028 3030 0
628 -55 -57 2715 -2717 0
628 -55 57 2715 2717 0
628 55 -57 -2715 -2717 0
628 55 57 -2715 2717 0
628 -55 57 -2715 -2717 0
628 55 57 2715 -2717 0
628 -55 -57 -2715 2717 0
628 55 -57 2715 2717 0
628 -67 -69 2723 -2725 0
628 -67 69 2723 2725 0
628 67 -69 -2723 -2725 0
628 67 69 -2723 2725 0
628 -67 69 -2723 -2725 0
628 67 69 2723 -2725 0
628 -67 -69 -2723 2725 0
628 67 -69 2723 2725 0
628 -338 -378 1510 -1512 0
628 -338 378 1510 1512 0
628 338 -378 -1510 -1512 0
628 338 378 -1510 1512 0
628 -338 378 -1510 -1512 0
628 338 378 1510 -1512 0
628 -338 -378 -1510 1512 0
628 338 -378 1510 1512 0
628 268 -302 -337 -1504 0
628 268 -302 337 1504 0
628 -268 302 -337 -1504 0
628 -268 302 337 1504 0
628 -268 -302 337 -1504 0
628 268 302 337 -1504 0
628 -268 -302 -337 1504 0
628 268 302 -337 1504 0
628 -87 -89 2506 -2508 0
628 -87 89 2506 2508 0
628 87 -89 -2506 -2508 0
628 87 89 -2506 2508 0
628 -87 89 -2506 -2508 0
628 87 89 2506 -2508 0
628 -87 -89 -2506 2508 0
628 87 -89 2506 2508 0
628 -310 -314 3333 -3335 0
628 -310 314 3333 3335 0
628 310 -314 -3333 -3335 0
628 310 314 -3333 3335 0
628 -310 314 -3333 -3335 0
628 310 314 3333 -3335 0
628 -310 -314 -3333 3335 0
628 310 -314 3333 3335 0
628 -408 -440 1253 -1255 0
628 -408 440 1253 1255 0
628 408 -440 -1253 -1255 0
628 408 440 -1253 1255 0
628 -408 440 -1253 -1255 0
628 408 440 1253 -1255 0
628 -408 -440 -1253 1255 0
628 408 -440 1253 1255 0
628 -64 -65 2720 -2722 0
628 -64 65 2720 2722 0
628 64 -65 -2720 -2722 0
628 64 65 -2720 2722 0
628 -64 65 -2720 -2722 0
628 64 65 2720 -2722 0
628 -64 -65 -2720 2722 0
628 64 -65 2720 2722 0
628 -255 -256 3015 -3017 0
628 -255 256 3015 3017 0
628 255 -256 -3015 -3017 0
628 255 256 -3015 3017 0
628 -255 256 -3015 -3017 0
628 255 256 3015 -3017 0
628 -255 -256 -3015 3017 0
628 255 -256 3015 3017 0
628 -94 -96 2512 -2514 0
628 -94 96 2512 2514 0
628 94 -96 -2512 -2514 0
628 94 96 -2512 2514 0
628 -94 96 -2512 -2514 0
628 94 96 2512 -2514 0
628 -94 -96 -2512 2514 0
628 94 -96 2512 2514 0
628 -36 -38 2518 -2520 0
628 -36 38 2518 2520 0
628 36 -38 -2518 -2520 0
628 36 38 -2518 2520 0
628 -36 38 -2518 -2520 0
628 36 38 2518 -2520 0
628 -36 -38 -2518 2520 0
628 36 -38 2518 2520 0
628 -75 -76 2522 -2524 0
628 -75 76 2522 2524 0
628 75 -76 -2522 -2524 0
628 75 76 -2522 2524 0
628 -75 76 -2522 -2524 0
628 75 76 2522 -2524 0
628 -75 -76 -2522 2524 0
628 75 -76 2522 2524 0
628 -409 -441 1260 -1262 0
628 -409 441 1260 1262 0
628 409 -441 -1260 -1262 0
628 409 441 -1260 1262 0
628 -409 441 -1260 -1262 0
628 409 441 1260 -1262 0
628 -409 -441 -1260 1262 0
628 409 -441 1260 1262 0
628 248 -282 -317 -1364 0
628 248 -282 317 1364 0
628 -248 282 -317 -1364 0
628 -248 282 317 1364 0
628 -248 -282 317 -1364 0
628 248 282 317 -1364 0
628 -248 -282 -317 1364 0
628 248 282 -317 1364 0
628 274 -275 -276 -3022 0
628 274 -275 276 3022 0
628 -274 275 -276 -3022 0
628 -274 275 276 3022 0
628 -274 -275 276 -3022 0
628 274 275 276 -3022 0
628 -274 -275 -276 3022 0
628 274 275 -276 3022 0
628 -345 -346 3337 -3339 0
628 -345 346 3337 3339 0
628 345 -346 -3337 -3339 0
628 345 346 -3337 3339 0
628 -345 346 -3337 -3339 0
628 345 346 3337 -3339 0
628 -345 -346 -3337 3339 0
628 345 -346 3337 3339 0
628 -73 -74 2534 -2536 0
628 -73 74 2534 2536 0
628 73 -74 -2534 -2536 0
628 73 74 -2534 2536 0
628 -73 74 -2534 -2536 0
628 73 74 2534 -2536 0
628 -73 -74 -2534 2536 0
628 73 -74 2534 2536 0
628 -6 -36 2527 -2529 0
628 -6 36 2527 2529 0
628 6 -36 -2527 -2529 0
628 6 36 -2527 2529 0
628 -6 36 -2527 -2529 0
628 6 36 2527 -2529 0
628 -6 -36 -2527 2529 0
628 6 -36 2527 2529 0
628 270 -303 -342 -1266 0
628 270 -303 342 1266 0
628 -270 303 -342 -1266 0
628 -270 303 342 1266 0
628 -270 -303 342 -1266 0
628 270 303 342 -1266 0
628 -270 -303 -342 1266 0
628 270 303 -342 1266 0
628 -38 -40 2529 -2531 0
628 -38 40 2529 2531 0
628 38 -40 -2529 -2531 0
628 38 40 -2529 2531 0
628 -38 40 -2529 -2531 0
628 38 40 2529 -2531 0
628 -38 -40 -2529 2531 0
628 38 -40 2529 2531 0
628 -71 -72 2532 -2534 0
628 -71 72 2532 2534 0
628 71 -72 -2532 -2534 0
628 71 72 -2532 2534 0
628 -71 72 -2532 -2534 0
628 71 72 2532 -2534 0
628 -71 -72 -2532 2534 0
628 71 -72 2532 2534 0
628 -410 -435 1267 -1269 0
628 -410 435 1267 1269 0
628 410 -435 -1267 -1269 0
628 410 435 -1267 1269 0
628 -410 435 -1267 -1269 0
628 410 435 1267 -1269 0
628 -410 -435 -1267 1269 0
628 410 -435 1267 1269 0
628 -410 -462 1505 -1507 0
628 -410 462 1505 1507 0
628 410 -462 -1505 -1507 0
628 410 462 -1505 1507 0
628 -410 462 -1505 -1507 0
628 410 462 1505 -1507 0
628 -410 -462 -1505 1507 0
628 410 -462 1505 1507 0
628 -246 -248 3011 -3013 0
628 -246 248 3011 3013 0
628 246 -248 -3011 -3013 0
628 246 248 -3011 3013 0
628 -246 248 -3011 -3013 0
628 246 248 3011 -3013 0
628 -246 -248 -3011 3013 0
628 246 -248 3011 3013 0
628 -38 -40 2542 -2544 0
628 -38 40 2542 2544 0
628 38 -40 -2542 -2544 0
628 38 40 -2542 2544 0
628 -38 40 -2542 -2544 0
628 38 40 2542 -2544 0
628 -38 -40 -2542 2544 0
628 38 -40 2542 2544 0
628 -58 -60 2717 -2719 0
628 -58 60 2717 2719 0
628 58 -60 -2717 -2719 0
628 58 60 -2717 2719 0
628 -58 60 -2717 -2719 0
628 58 60 2717 -2719 0
628 -58 -60 -2717 2719 0
628 58 -60 2717 2719 0
628 -74 -75 2546 -2548 0
628 -74 75 2546 2548 0
628 74 -75 -2546 -2548 0
628 74 75 -2546 2548 0
628 -74 75 -2546 -2548 0
628 74 75 2546 -2548 0
628 -74 -75 -2546 2548 0
628 74 -75 2546 2548 0
628 -376 -411 1273 -1275 0
628 -376 411 1273 1275 0
628 376 -411 -1273 -1275 0
628 376 411 -1273 1275 0
628 -376 411 -1273 -1275 0
628 376 411 1273 -1275 0
628 -376 -411 -1273 1275 0
628 376 -411 1273 1275 0
628 -39 -41 2554 -2556 0
628 -39 41 2554 2556 0
628 39 -41 -2554 -2556 0
628 39 41 -2554 2556 0
628 -39 41 -2554 -2556 0
628 39 41 2554 -2556 0
628 -39 -41 -2554 2556 0
628 39 -41 2554 2556 0
628 -4 -6 2551 -2553 0
628 -4 6 2551 2553 0
628 4 -6 -2551 -2553 0
628 4 6 -2551 2553 0
628 -4 6 -2551 -2553 0
628 4 6 2551 -2553 0
628 -4 -6 -2551 2553 0
628 4 -6 2551 2553 0
628 240 -243 -244 -3010 0
628 240 -243 244 3010 0
628 -240 243 -244 -3010 0
628 -240 243 244 3010 0
628 -240 -243 244 -3010 0
628 240 243 244 -3010 0
628 -240 -243 -244 3010 0
628 240 243 -244 3010 0
628 -73 -74 2556 -2558 0
628 -73 74 2556 2558 0
628 73 -74 -2556 -2558 0
628 73 74 -2556 2558 0
628 -73 74 -2556 -2558 0
628 73 74 2556 -2558 0
628 -73 -74 -2556 2558 0
628 73 -74 2556 2558 0
628 -75 -76 2558 -2560 0
628 -75 76 2558 2560 0
628 75 -76 -2558 -2560 0
628 75 76 -2558 2560 0
628 -75 76 -2558 -2560 0
628 75 76 2558 -2560 0
628 -75 -76 -2558 2560 0
628 75 -76 2558 2560 0
628 -96 -97 2692 -2694 0
628 -96 97 2692 2694 0
628 96 -97 -2692 -2694 0
628 96 97 -2692 2694 0
628 -96 97 -2692 -2694 0
628 96 97 2692 -2694 0
628 -96 -97 -2692 2694 0
628 96 -97 2692 2694 0
628 -25 -27 2704 -2706 0
628 -25 27 2704 2706 0
628 25 -27 -2704 -2706 0
628 25 27 -2704 2706 0
628 -25 27 -2704 -2706 0
628 25 27 2704 -2706 0
628 -25 -27 -2704 2706 0
628 25 -27 2704 2706 0
628 -367 -400 1483 -1485 0
628 -367 400 1483 1485 0
628 367 -400 -1483 -1485 0
628 367 400 -1483 1485 0
628 -367 400 -1483 -1485 0
628 367 400 1483 -1485 0
628 -367 -400 -1483 1485 0
628 367 -400 1483 1485 0
628 -276 -279 3329 -3331 0
628 -276 279 3329 3331 0
628 276 -279 -3329 -3331 0
628 276 279 -3329 3331 0
628 -276 279 -3329 -3331 0
628 276 279 3329 -3331 0
628 -276 -279 -3329 3331 0
628 276 -279 3329 3331 0
628 -377 -412 1280 -1282 0
628 -377 412 1280 1282 0
628 377 -412 -1280 -1282 0
628 377 412 -1280 1282 0
628 -377 412 -1280 -1282 0
628 377 412 1280 -1282 0
628 -377 -412 -1280 1282 0
628 377 -412 1280 1282 0
628 3 -4 -5 -2564 0
628 3 -4 5 2564 0
628 -3 4 -5 -2564 0
628 -3 4 5 2564 0
628 -3 -4 5 -2564 0
628 3 4 5 -2564 0
628 -3 -4 -5 2564 0
628 3 4 -5 2564 0
628 2 -3 -7 -2576 0
628 2 -3 7 2576 0
628 -2 3 -7 -2576 0
628 -2 3 7 2576 0
628 -2 -3 7 -2576 0
628 2 3 7 -2576 0
628 -2 -3 -7 2576 0
628 2 3 -7 2576 0
628 -36 -37 2565 -2567 0
628 -36 37 2565 2567 0
628 36 -37 -2565 -2567 0
628 36 37 -2565 2567 0
628 -36 37 -2565 -2567 0
628 36 37 2565 -2567 0
628 -36 -37 -2565 2567 0
628 36 -37 2565 2567 0
628 -251 -254 3002 -3004 0
628 -251 254 3002 3004 0
628 251 -254 -3002 -3004 0
628 251 254 -3002 3004 0
628 -251 254 -3002 -3004 0
628 251 254 3002 -3004 0
628 -251 -254 -3002 3004 0
628 251 -254 3002 3004 0
628 -17 -22 1664 -1666 0
628 -17 22 1664 1666 0
628 17 -22 -1664 -1666 0
628 17 22 -1664 1666 0
628 -17 22 -1664 -1666 0
628 17 22 1664 -1666 0
628 -17 -22 -1664 1666 0
628 17 -22 1664 1666 0
628 -41 -71 2568 -2570 0
628 -41 71 2568 2570 0
628 41 -71 -2568 -2570 0
628 41 71 -2568 2570 0
628 -41 71 -2568 -2570 0
628 41 71 2568 -2570 0
628 -41 -71 -2568 2570 0
628 41 -71 2568 2570 0
628 273 -306 -338 -1287 0
628 273 -306 338 1287 0
628 -273 306 -338 -1287 0
628 -273 306 338 1287 0
628 -273 -306 338 -1287 0
628 273 306 338 -1287 0
628 -273 -306 -338 1287 0
628 273 306 -338 1287 0
628 -39 -41 2577 -2579 0
628 -39 41 2577 2579 0
628 39 -41 -2577 -2579 0
628 39 41 -2577 2579 0
628 -39 41 -2577 -2579 0
628 39 41 2577 -2579 0
628 -39 -41 -2577 2579 0
628 39 -41 2577 2579 0
628 -413 -438 1288 -1290 0
628 -413 438 1288 1290 0
628 413 -438 -1288 -1290 0
628 413 438 -1288 1290 0
628 -413 438 -1288 -1290 0
628 413 438 1288 -1290 0
628 -413 -438 -1288 1290 0
628 413 -438 1288 1290 0
628 245 -247 -254 -3278 0
628 245 -247 254 3278 0
628 -245 247 -254 -3278 0
628 -245 247 254 3278 0
628 -245 -247 254 -3278 0
628 245 247 254 -3278 0
628 -245 -247 -254 3278 0
628 245 247 -254 3278 0
628 -73 -74 2580 -2582 0
628 -73 74 2580 2582 0
628 73 -74 -2580 -2582 0
628 73 74 -2580 2582 0
628 -73 74 -2580 -2582 0
628 73 74 2580 -2582 0
628 -73 -74 -2580 2582 0
628 73 -74 2580 2582 0
628 349 -351 -358 -3262 0
628 349 -351 358 3262 0
628 -349 351 -358 -3262 0
628 -349 351 358 3262 0
628 -349 -351 358 -3262 0
628 349 351 358 -3262 0
628 -349 -351 -358 3262 0
628 349 351 -358 3262 0
628 -129 -136 2043 -2045 0
628 -129 136 2043 2045 0
628 129 -136 -2043 -2045 0
628 129 136 -2043 2045 0
628 -129 136 -2043 -2045 0
628 129 136 2043 -2045 0
628 -129 -136 -2043 2045 0
628 129 -136 2043 2045 0
628 -376 -413 1021 -1023 0
628 -376 413 1021 1023 0
628 376 -413 -1021 -1023 0
628 376 413 -1021 1023 0
628 -376 413 -1021 -1023 0
628 376 413 1021 -1023 0
628 -376 -413 -1021 1023 0
628 376 -413 1021 1023 0
628 108 -113 -124 -2043 0
628 108 -113 124 2043 0
628 -108 113 -124 -2043 0
628 -108 113 124 2043 0
628 -108 -113 124 -2043 0
628 108 113 124 -2043 0
628 -108 -113 -124 2043 0
628 108 113 -124 2043 0
628 -7 -36 2586 -2588 0
628 -7 36 2586 2588 0
628 7 -36 -2586 -2588 0
628 7 36 -2586 2588 0
628 -7 36 -2586 -2588 0
628 7 36 2586 -2588 0
628 -7 -36 -2586 2588 0
628 7 -36 2586 2588 0
628 -38 -39 2588 -2590 0
628 -38 39 2588 2590 0
628 38 -39 -2588 -2590 0
628 38 39 -2588 2590 0
628 -38 39 -2588 -2590 0
628 38 39 2588 -2590 0
628 -38 -39 -2588 2590 0
628 38 -39 2588 2590 0
628 -314 -347 1293 -1295 0
628 -314 347 1293 1295 0
628 314 -347 -1293 -1295 0
628 314 347 -1293 1295 0
628 -314 347 -1293 -1295 0
628 314 347 1293 -1295 0
628 -314 -347 -1293 1295 0
628 314 -347 1293 1295 0
628 -128 -135 2036 -2038 0
628 -128 135 2036 2038 0
628 128 -135 -2036 -2038 0
628 128 135 -2036 2038 0
628 -128 135 -2036 -2038 0
628 128 135 2036 -2038 0
628 -128 -135 -2036 2038 0
628 128 -135 2036 2038 0
628 -41 -73 2590 -2592 0
628 -41 73 2590 2592 0
628 41 -73 -2590 -2592 0
628 41 73 -2590 2592 0
628 -41 73 -2590 -2592 0
628 41 73 2590 -2592 0
628 -41 -73 -2590 2592 0
628 41 -73 2590 2592 0
628 -33 -37 2708 -2710 0
628 -33 37 2708 2710 0
628 33 -37 -2708 -2710 0
628 33 37 -2708 2710 0
628 -33 37 -2708 -2710 0
628 33 37 2708 -2710 0
628 -33 -37 -2708 2710 0
628 33 -37 2708 2710 0
628 107 -119 -123 -2036 0
628 107 -119 123 2036 0
628 -107 119 -123 -2036 0
628 -107 119 123 2036 0
628 -107 -119 123 -2036 0
628 107 119 123 -2036 0
628 -107 -119 -123 2036 0
628 107 119 -123 2036 0
628 -43 -45 2598 -2600 0
628 -43 45 2598 2600 0
628 43 -45 -2598 -2600 0
628 43 45 -2598 2600 0
628 -43 45 -2598 -2600 0
628 43 45 2598 -2600 0
628 -43 -45 -2598 2600 0
628 43 -45 2598 2600 0
628 -127 -134 2029 -2031 0
628 -127 134 2029 2031 0
628 127 -134 -2029 -2031 0
628 127 134 -2029 2031 0
628 -127 134 -2029 -2031 0
628 127 134 2029 -2031 0
628 -127 -134 -2029 2031 0
628 127 -134 2029 2031 0
628 -375 -412 1014 -1016 0
628 -375 412 1014 1016 0
628 375 -412 -1014 -1016 0
628 375 412 -1014 1016 0
628 -375 412 -1014 -1016 0
628 375 412 1014 -1016 0
628 -375 -412 -1014 1016 0
628 375 -412 1014 1016 0
628 106 -118 -122 -2029 0
628 106 -118 122 2029 0
628 -106 118 -122 -2029 0
628 -106 118 122 2029 0
628 -106 -118 122 -2029 0
628 106 118 122 -2029 0
628 -106 -118 -122 2029 0
628 106 118 -122 2029 0
628 -380 -461 1295 -1297 0
628 -380 461 1295 1297 0
628 380 -461 -1295 -1297 0
628 380 461 -1295 1297 0
628 -380 461 -1295 -1297 0
628 380 461 1295 -1297 0
628 -380 -461 -1295 1297 0
628 380 -461 1295 1297 0
628 -278 -280 3281 -3283 0
628 -278 280 3281 3283 0
628 278 -280 -3281 -3283 0
628 278 280 -3281 3283 0
628 -278 280 -3281 -3283 0
628 278 280 3281 -3283 0
628 -278 -280 -3281 3283 0
628 278 -280 3281 3283 0
628 -82 -83 2602 -2604 0
628 -82 83 2602 2604 0
628 82 -83 -2602 -2604 0
628 82 83 -2602 2604 0
628 -82 83 -2602 -2604 0
628 82 83 2602 -2604 0
628 -82 -83 -2602 2604 0
628 82 -83 2602 2604 0
628 -315 -348 1300 -1302 0
628 -315 348 1300 1302 0
628 315 -348 -1300 -1302 0
628 315 348 -1300 1302 0
628 -315 348 -1300 -1302 0
628 315 348 1300 -1302 0
628 -315 -348 -1300 1302 0
628 315 -348 1300 1302 0
628 -376 -409 1497 -1499 0
628 -376 409 1497 1499 0
628 376 -409 -1497 -1499 0
628 376 409 -1497 1499 0
628 -376 409 -1497 -1499 0
628 376 409 1497 -1499 0
628 -376 -409 -1497 1499 0
628 376 -409 1497 1499 0
628 107 -118 -120 -2022 0
628 107 -118 120 2022 0
628 -107 118 -120 -2022 0
628 -107 118 120 2022 0
628 -107 -118 120 -2022 0
628 107 118 120 -2022 0
628 -107 -118 -120 2022 0
628 107 118 -120 2022 0
628 267 -308 -343 -1497 0
628 267 -308 343 1497 0
628 -267 308 -343 -1497 0
628 -267 308 343 1497 0
628 -267 -308 343 -1497 0
628 267 308 343 -1497 0
628 -267 -308 -343 1497 0
628 267 308 -343 1497 0
628 -47 -48 2610 -2612 0
628 -47 48 2610 2612 0
628 47 -48 -2610 -2612 0
628 47 48 -2610 2612 0
628 -47 48 -2610 -2612 0
628 47 48 2610 -2612 0
628 -47 -48 -2610 2612 0
628 47 -48 2610 2612 0
628 -80 -81 2614 -2616 0
628 -80 81 2614 2616 0
628 80 -81 -2614 -2616 0
628 80 81 -2614 2616 0
628 -80 81 -2614 -2616 0
628 80 81 2614 -2616 0
628 -80 -81 -2614 2616 0
628 80 -81 2614 2616 0
628 -135 -180 2016 -2018 0
628 -135 180 2016 2018 0
628 135 -180 -2016 -2018 0
628 135 180 -2016 2018 0
628 -135 180 -2016 -2018 0
628 135 180 2016 -2018 0
628 -135 -180 -2016 2018 0
628 135 -180 2016 2018 0
628 -255 -256 3004 -3006 0
628 -255 256 3004 3006 0
628 255 -256 -3004 -3006 0
628 255 256 -3004 3006 0
628 -255 256 -3004 -3006 0
628 255 256 3004 -3006 0
628 -255 -256 -3004 3006 0
628 255 -256 3004 3006 0
628 -349 -382 1308 -1310 0
628 -349 382 1308 1310 0
628 349 -382 -1308 -1310 0
628 349 382 -1308 1310 0
628 -349 382 -1308 -1310 0
628 349 382 1308 -1310 0
628 -349 -382 -1308 1310 0
628 349 -382 1308 1310 0
628 -12 -43 2620 -2622 0
628 -12 43 2620 2622 0
628 12 -43 -2620 -2622 0
628 12 43 -2620 2622 0
628 -12 43 -2620 -2622 0
628 12 43 2620 -2622 0
628 -12 -43 -2620 2622 0
628 12 -43 2620 2622 0
628 106 -117 -126 -2015 0
628 106 -117 126 2015 0
628 -106 117 -126 -2015 0
628 -106 117 126 2015 0
628 -106 -117 126 -2015 0
628 106 117 126 -2015 0
628 -106 -117 -126 2015 0
628 106 117 -126 2015 0
628 -339 -374 1006 -1008 0
628 -339 374 1006 1008 0
628 339 -374 -1006 -1008 0
628 339 374 -1006 1008 0
628 -339 374 -1006 -1008 0
628 339 374 1006 -1008 0
628 -339 -374 -1006 1008 0
628 339 -374 1006 1008 0
628 -45 -47 2622 -2624 0
628 -45 47 2622 2624 0
628 45 -47 -2622 -2624 0
628 45 47 -2622 2624 0
628 -45 47 -2622 -2624 0
628 45 47 2622 -2624 0
628 -45 -47 -2622 2624 0
628 45 -47 2622 2624 0
628 -322 -355 1349 -1351 0
628 -322 355 1349 1351 0
628 322 -355 -1349 -1351 0
628 322 355 -1349 1351 0
628 -322 355 -1349 -1351 0
628 322 355 1349 -1351 0
628 -322 -355 -1349 1351 0
628 322 -355 1349 1351 0
628 -132 -134 2008 -2010 0
628 -132 134 2008 2010 0
628 132 -134 -2008 -2010 0
628 132 134 -2008 2010 0
628 -132 134 -2008 -2010 0
628 132 134 2008 -2010 0
628 -132 -134 -2008 2010 0
628 132 -134 2008 2010 0
628 -388 -458 1351 -1353 0
628 -388 458 1351 1353 0
628 388 -458 -1351 -1353 0
628 388 458 -1351 1353 0
628 -388 458 -1351 -1353 0
628 388 458 1351 -1353 0
628 -388 -458 -1351 1353 0
628 388 -458 1351 1353 0
628 9 -10 -11 -2632 0
628 9 -10 11 2632 0
628 -9 10 -11 -2632 0
628 -9 10 11 2632 0
628 -9 -10 11 -2632 0
628 9 10 11 -2632 0
628 -9 -10 -11 2632 0
628 9 10 -11 2632 0
628 -80 -81 2625 -2627 0
628 -80 81 2625 2627 0
628 80 -81 -2625 -2627 0
628 80 81 -2625 2627 0
628 -80 81 -2625 -2627 0
628 80 81 2625 -2627 0
628 -80 -81 -2625 2627 0
628 80 -81 2625 2627 0
628 240 -241 -245 -3000 0
628 240 -241 245 3000 0
628 -240 241 -245 -3000 0
628 -240 241 245 3000 0
628 -240 -241 245 -3000 0
628 240 241 245 -3000 0
628 -240 -241 -245 3000 0
628 240 241 -245 3000 0
628 -410 -418 1001 -1003 0
628 -410 418 1001 1003 0
628 410 -418 -1001 -1003 0
628 410 418 -1001 1003 0
628 -410 418 -1001 -1003 0
628 410 418 1001 -1003 0
628 -410 -418 -1001 1003 0
628 410 -418 1001 1003 0
628 -124 -131 2000 -2002 0
628 -124 131 2000 2002 0
628 124 -131 -2000 -2002 0
628 124 131 -2000 2002 0
628 -124 131 -2000 -2002 0
628 124 131 2000 -2002 0
628 -124 -131 -2000 2002 0
628 124 -131 2000 2002 0
628 -338 -373 999 -1001 0
628 -338 373 999 1001 0
628 338 -373 -999 -1001 0
628 338 373 -999 1001 0
628 -338 373 -999 -1001 0
628 338 373 999 -1001 0
628 -338 -373 -999 1001 0
628 338 -373 999 1001 0
628 -310 -350 1314 -1316 0
628 -310 350 1314 1316 0
628 310 -350 -1314 -1316 0
628 310 350 -1314 1316 0
628 -310 350 -1314 -1316 0
628 310 350 1314 -1316 0
628 -310 -350 -1314 1316 0
628 310 -350 1314 1316 0
628 -242 -244 2975 -2977 0
628 -242 244 2975 2977 0
628 242 -244 -2975 -2977 0
628 242 244 -2975 2977 0
628 -242 244 -2975 -2977 0
628 242 244 2975 -2977 0
628 -242 -244 -2975 2977 0
628 242 -244 2975 2977 0
628 275 -276 -280 -3168 0
628 275 -276 280 3168 0
628 -275 276 -280 -3168 0
628 -275 276 280 3168 0
628 -275 -276 280 -3168 0
628 275 276 280 -3168 0
628 -275 -276 -280 3168 0
628 275 276 -280 3168 0
628 -46 -48 2634 -2636 0
628 -46 48 2634 2636 0
628 46 -48 -2634 -2636 0
628 46 48 -2634 2636 0
628 -46 48 -2634 -2636 0
628 46 48 2634 -2636 0
628 -46 -48 -2634 2636 0
628 46 -48 2634 2636 0
628 -16 -28 1657 -1659 0
628 -16 28 1657 1659 0
628 16 -28 -1657 -1659 0
628 16 28 -1657 1659 0
628 -16 28 -1657 -1659 0
628 16 28 1657 -1659 0
628 -16 -28 -1657 1659 0
628 16 -28 1657 1659 0
628 110 -114 -123 -1994 0
628 110 -114 123 1994 0
628 -110 114 -123 -1994 0
628 -110 114 123 1994 0
628 -110 -114 123 -1994 0
628 110 114 123 -1994 0
628 -110 -114 -123 1994 0
628 110 114 -123 1994 0
628 -342 -375 1489 -1491 0
628 -342 375 1489 1491 0
628 342 -375 -1489 -1491 0
628 342 375 -1489 1491 0
628 -342 375 -1489 -1491 0
628 342 375 1489 -1491 0
628 -342 -375 -1489 1491 0
628 342 -375 1489 1491 0
628 10 -11 -12 -2644 0
628 10 -11 12 2644 0
628 -10 11 -12 -2644 0
628 -10 11 12 2644 0
628 -10 -11 12 -2644 0
628 10 11 12 -2644 0
628 -10 -11 -12 2644 0
628 10 11 -12 2644 0
628 -129 -138 1987 -1989 0
628 -129 138 1987 1989 0
628 129 -138 -1987 -1989 0
628 129 138 -1987 1989 0
628 -129 138 -1987 -1989 0
628 129 138 1987 -1989 0
628 -129 -138 -1987 1989 0
628 129 -138 1987 1989 0
628 -402 -419 994 -996 0
628 -402 419 994 996 0
628 402 -419 -994 -996 0
628 402 419 -994 996 0
628 -402 419 -994 -996 0
628 402 419 994 -996 0
628 -402 -419 -994 996 0
628 402 -419 994 996 0
628 242 -276 -311 -1322 0
628 242 -276 311 1322 0
628 -242 276 -311 -1322 0
628 -242 276 311 1322 0
628 -242 -276 311 -1322 0
628 242 276 311 -1322 0
628 -242 -276 -311 1322 0
628 242 276 -311 1322 0
628 -44 -46 2646 -2648 0
628 -44 46 2646 2648 0
628 44 -46 -2646 -2648 0
628 44 46 -2646 2648 0
628 -44 46 -2646 -2648 0
628 44 46 2646 -2648 0
628 -44 -46 -2646 2648 0
628 44 -46 2646 2648 0
628 -14 -16 2699 -2701 0
628 -14 16 2699 2701 0
628 14 -16 -2699 -2701 0
628 14 16 -2699 2701 0
628 -14 16 -2699 -2701 0
628 14 16 2699 -2701 0
628 -14 -16 -2699 2701 0
628 14 -16 2699 2701 0
628 -79 -80 2650 -2652 0
628 -79 80 2650 2652 0
628 79 -80 -2650 -2652 0
628 79 80 -2650 2652 0
628 -79 80 -2650 -2652 0
628 79 80 2650 -2652 0
628 -79 -80 -2650 2652 0
628 79 -80 2650 2652 0
628 -251 -253 2992 -2994 0
628 -251 253 2992 2994 0
628 251 -253 -2992 -2994 0
628 251 253 -2992 2994 0
628 -251 253 -2992 -2994 0
628 251 253 2992 -2994 0
628 -251 -253 -2992 2994 0
628 251 -253 2992 2994 0
628 9 -10 -14 -2656 0
628 9 -10 14 2656 0
628 -9 10 -14 -2656 0
628 -9 10 14 2656 0
628 -9 -10 14 -2656 0
628 9 10 14 -2656 0
628 -9 -10 -14 2656 0
628 9 10 -14 2656 0
628 -137 -182 1981 -1983 0
628 -137 182 1981 1983 0
628 137 -182 -1981 -1983 0
628 137 182 -1981 1983 0
628 -137 182 -1981 -1983 0
628 137 182 1981 -1983 0
628 -137 -182 -1981 1983 0
628 137 -182 1981 1983 0
628 -46 -48 2657 -2659 0
628 -46 48 2657 2659 0
628 46 -48 -2657 -2659 0
628 46 48 -2657 2659 0
628 -46 48 -2657 -2659 0
628 46 48 2657 -2659 0
628 -46 -48 -2657 2659 0
628 46 -48 2657 2659 0
628 -312 -345 1328 -1330 0
628 -312 345 1328 1330 0
628 312 -345 -1328 -1330 0
628 312 345 -1328 1330 0
628 -312 345 -1328 -1330 0
628 312 345 1328 -1330 0
628 -312 -345 -1328 1330 0
628 312 -345 1328 1330 0
628 -80 -81 2660 -2662 0
628 -80 81 2660 2662 0
628 80 -81 -2660 -2662 0
628 80 81 -2660 2662 0
628 -80 81 -2660 -2662 0
628 80 81 2660 -2662 0
628 -80 -81 -2660 2662 0
628 80 -81 2660 2662 0
628 -398 -414 3320 -3322 0
628 -398 414 3320 3322 0
628 398 -414 -3320 -3322 0
628 398 414 -3320 3322 0
628 -398 414 -3320 -3322 0
628 398 414 3320 -3322 0
628 -398 -414 -3320 3322 0
628 398 -414 3320 3322 0
628 -14 -43 2666 -2668 0
628 -14 43 2666 2668 0
628 14 -43 -2666 -2668 0
628 14 43 -2666 2668 0
628 -14 43 -2666 -2668 0
628 14 43 2666 -2668 0
628 -14 -43 -2666 2668 0
628 14 -43 2666 2668 0
628 -94 -99 1973 -1975 0
628 -94 99 1973 1975 0
628 94 -99 -1973 -1975 0
628 94 99 -1973 1975 0
628 -94 99 -1973 -1975 0
628 94 99 1973 -1975 0
628 -94 -99 -1973 1975 0
628 94 -99 1973 1975 0
628 -371 -401 986 -988 0
628 -371 401 986 988 0
628 371 -401 -986 -988 0
628 371 401 -986 988 0
628 -371 401 -986 -988 0
628 371 401 986 -988 0
628 -371 -401 -986 988 0
628 371 -401 986 988 0
628 -245 -246 2988 -2990 0
628 -245 246 2988 2990 0
628 245 -246 -2988 -2990 0
628 245 246 -2988 2990 0
628 -245 246 -2988 -2990 0
628 245 246 2988 -2990 0
628 -245 -246 -2988 2990 0
628 245 -246 2988 2990 0
628 -388 -389 3315 -3317 0
628 -388 389 3315 3317 0
628 388 -389 -3315 -3317 0
628 388 389 -3315 3317 0
628 -388 389 -3315 -3317 0
628 388 389 3315 -3317 0
628 -388 -389 -3315 3317 0
628 388 -389 3315 3317 0
628 -48 -80 2670 -2672 0
628 -48 80 2670 2672 0
628 48 -80 -2670 -2672 0
628 48 80 -2670 2672 0
628 -48 80 -2670 -2672 0
628 48 80 2670 -2672 0
628 -48 -80 -2670 2672 0
628 48 -80 2670 2672 0
628 -105 -194 1967 -1969 0
628 -105 194 1967 1969 0
628 105 -194 -1967 -1969 0
628 105 194 -1967 1969 0
628 -105 194 -1967 -1969 0
628 105 194 1967 -1969 0
628 -105 -194 -1967 1969 0
628 105 -194 1967 1969 0
628 -249 -251 2978 -2980 0
628 -249 251 2978 2980 0
628 249 -251 -2978 -2980 0
628 249 251 -2978 2980 0
628 -249 251 -2978 -2980 0
628 249 251 2978 -2980 0
628 -249 -251 -2978 2980 0
628 249 -251 2978 2980 0
628 -88 -93 1965 -1967 0
628 -88 93 1965 1967 0
628 88 -93 -1965 -1967 0
628 88 93 -1965 1967 0
628 -88 93 -1965 -1967 0
628 88 93 1965 -1967 0
628 -88 -93 -1965 1967 0
628 88 -93 1965 1967 0
628 245 -277 -314 -832 0
628 245 -277 314 832 0
628 -245 277 -314 -832 0
628 -245 277 314 832 0
628 -245 -277 314 -832 0
628 245 277 314 -832 0
628 -245 -277 -314 832 0
628 245 277 -314 832 0
628 -346 -379 1336 -1338 0
628 -346 379 1336 1338 0
628 346 -379 -1336 -1338 0
628 346 379 -1336 1338 0
628 -346 379 -1336 -1338 0
628 346 379 1336 -1338 0
628 -346 -379 -1336 1338 0
628 346 -379 1336 1338 0
628 -50 -52 2678 -2680 0
628 -50 52 2678 2680 0
628 50 -52 -2678 -2680 0
628 50 52 -2678 2680 0
628 -50 52 -2678 -2680 0
628 50 52 2678 -2680 0
628 -50 -52 -2678 2680 0
628 50 -52 2678 2680 0
628 -104 -193 1960 -1962 0
628 -104 193 1960 1962 0
628 104 -193 -1960 -1962 0
628 104 193 -1960 1962 0
628 -104 193 -1960 -1962 0
628 104 193 1960 -1962 0
628 -104 -193 -1960 1962 0
628 104 -193 1960 1962 0
628 -256 -257 2981 -2983 0
628 -256 257 2981 2983 0
628 256 -257 -2981 -2983 0
628 256 257 -2981 2983 0
628 -256 257 -2981 -2983 0
628 256 257 2981 -2983 0
628 -256 -257 -2981 2983 0
628 256 -257 2981 2983 0
628 -89 -90 2682 -2684 0
628 -89 90 2682 2684 0
628 89 -90 -2682 -2684 0
628 89 90 -2682 2684 0
628 -89 90 -2682 -2684 0
628 89 90 2682 -2684 0
628 -89 -90 -2682 2684 0
628 89 -90 2682 2684 0
628 -33 -191 1659 -1661 0
628 -33 191 1659 1661 0
628 33 -191 -1659 -1661 0
628 33 191 -1659 1661 0
628 -33 191 -1659 -1661 0
628 33 191 1659 -1661 0
628 -33 -191 -1659 1661 0
628 33 -191 1659 1661 0
628 74 -80 -87 -1959 0
628 74 -80 87 1959 0
628 -74 80 -87 -1959 0
628 -74 80 87 1959 0
628 -74 -80 87 -1959 0
628 74 80 87 -1959 0
628 -74 -80 -87 1959 0
628 74 80 -87 1959 0
628 -335 -370 978 -980 0
628 -335 370 978 980 0
628 335 -370 -978 -980 0
628 335 370 -978 980 0
628 -335 370 -978 -980 0
628 335 370 978 -980 0
628 -335 -370 -978 980 0
628 335 -370 978 980 0
628 -11 -12 2697 -2699 0
628 -11 12 2697 2699 0
628 11 -12 -2697 -2699 0
628 11 12 -2697 2699 0
628 -11 12 -2697 -2699 0
628 11 12 2697 -2699 0
628 -11 -12 -2697 2699 0
628 11 -12 2697 2699 0
628 -321 -354 1342 -1344 0
628 -321 354 1342 1344 0
628 321 -354 -1342 -1344 0
628 321 354 -1342 1344 0
628 -321 354 -1342 -1344 0
628 321 354 1342 -1344 0
628 -321 -354 -1342 1344 0
628 321 -354 1342 1344 0
628 -98 -103 1952 -1954 0
628 -98 103 1952 1954 0
628 98 -103 -1952 -1954 0
628 98 103 -1952 1954 0
628 -98 103 -1952 -1954 0
628 98 103 1952 -1954 0
628 -98 -103 -1952 1954 0
628 98 -103 1952 1954 0
628 -248 -250 2953 -2955 0
628 -248 250 2953 2955 0
628 248 -250 -2953 -2955 0
628 248 250 -2953 2955 0
628 -248 250 -2953 -2955 0
628 248 250 2953 -2955 0
628 -248 -250 -2953 2955 0
628 248 -250 2953 2955 0
628 -59 -62 2689 -2691 0
628 -59 62 2689 2691 0
628 59 -62 -2689 -2691 0
628 59 62 -2689 2691 0
628 -59 62 -2689 -2691 0
628 59 62 2689 -2691 0
628 -59 -62 -2689 2691 0
628 59 -62 2689 2691 0
628 -387 -457 1344 -1346 0
628 -387 457 1344 1346 0
628 387 -457 -1344 -1346 0
628 387 457 -1344 1346 0
628 -387 457 -1344 -1346 0
628 387 457 1344 -1346 0
628 -387 -457 -1344 1346 0
628 387 -457 1344 1346 0
628 73 -79 -86 -1952 0
628 73 -79 86 1952 0
628 -73 79 -86 -1952 0
628 -73 79 86 1952 0
628 -73 -79 86 -1952 0
628 73 79 86 -1952 0
628 -73 -79 -86 1952 0
628 73 79 -86 1952 0
628 -15 -27 1650 -1652 0
628 -15 27 1650 1652 0
628 15 -27 -1650 -1652 0
628 15 27 -1650 1652 0
628 -15 27 -1650 -1652 0
628 15 27 1650 -1652 0
628 -15 -27 -1650 1652 0
628 15 -27 1650 1652 0
628 -20 -23 2702 -2704 0
628 -20 23 2702 2704 0
628 20 -23 -2702 -2704 0
628 20 23 -2702 2704 0
628 -20 23 -2702 -2704 0
628 20 23 2702 -2704 0
628 -20 -23 -2702 2704 0
628 20 -23 2702 2704 0
628 -85 -97 1944 -1946 0
628 -85 97 1944 1946 0
628 85 -97 -1944 -1946 0
628 85 97 -1944 1946 0
628 -85 97 -1944 -1946 0
628 85 97 1944 -1946 0
628 -85 -97 -1944 1946 0
628 85 -97 1944 1946 0
628 -334 -369 971 -973 0
628 -334 369 971 973 0
628 334 -369 -971 -973 0
628 334 369 -971 973 0
628 -334 369 -971 -973 0
628 334 369 971 -973 0
628 -334 -369 -971 973 0
628 334 -369 971 973 0
628 -332 -365 1468 -1470 0
628 -332 365 1468 1470 0
628 332 -365 -1468 -1470 0
628 332 365 -1468 1470 0
628 -332 365 -1468 -1470 0
628 332 365 1468 -1470 0
628 -332 -365 -1468 1470 0
628 332 -365 1468 1470 0
628 265 -299 -334 -1483 0
628 265 -299 334 1483 0
628 -265 299 -334 -1483 0
628 -265 299 334 1483 0
628 -265 -299 334 -1483 0
628 265 299 334 -1483 0
628 -265 -299 -334 1483 0
628 265 299 -334 1483 0
628 -15 -22 1580 -1582 0
628 -15 22 1580 1582 0
628 15 -22 -1580 -1582 0
628 15 22 -1580 1582 0
628 -15 22 -1580 -1582 0
628 15 22 1580 -1582 0
628 -15 -22 -1580 1582 0
628 15 -22 1580 1582 0
628 -28 -31 2706 -2708 0
628 -28 31 2706 2708 0
628 28 -31 -2706 -2708 0
628 28 31 -2706 2708 0
628 -28 31 -2706 -2708 0
628 28 31 2706 -2708 0
628 -28 -31 -2706 2708 0
628 28 -31 2706 2708 0
628 -43 -45 2710 -2712 0
628 -43 45 2710 2712 0
628 43 -45 -2710 -2712 0
628 43 45 -2710 2712 0
628 -43 45 -2710 -2712 0
628 43 45 2710 -2712 0
628 -43 -45 -2710 2712 0
628 43 -45 2710 2712 0
628 71 -84 -91 -1938 0
628 71 -84 91 1938 0
628 -71 84 -91 -1938 0
628 -71 84 91 1938 0
628 -71 -84 91 -1938 0
628 71 84 91 -1938 0
628 -71 -84 -91 1938 0
628 71 84 -91 1938 0
628 -255 -256 2969 -2971 0
628 -255 256 2969 2971 0
628 255 -256 -2969 -2971 0
628 255 256 -2969 2971 0
628 -255 256 -2969 -2971 0
628 255 256 2969 -2971 0
628 -255 -256 -2969 2971 0
628 255 -256 2969 2971 0
628 -241 -243 2963 -2965 0
628 -241 243 2963 2965 0
628 241 -243 -2963 -2965 0
628 241 243 -2963 2965 0
628 -241 243 -2963 -2965 0
628 241 243 2963 -2965 0
628 -241 -243 -2963 2965 0
628 241 -243 2963 2965 0
628 -100 -196 1932 -1934 0
628 -100 196 1932 1934 0
628 100 -196 -1932 -1934 0
628 100 196 -1932 1934 0
628 -100 196 -1932 -1934 0
628 100 196 1932 -1934 0
628 -100 -196 -1932 1934 0
628 100 -196 1932 1934 0
628 -76 -81 2726 -2728 0
628 -76 81 2726 2728 0
628 76 -81 -2726 -2728 0
628 76 81 -2726 2728 0
628 -76 81 -2726 -2728 0
628 76 81 2726 -2728 0
628 -76 -81 -2726 2728 0
628 76 -81 2726 2728 0
628 -248 -250 2966 -2968 0
628 -248 250 2966 2968 0
628 248 -250 -2966 -2968 0
628 248 250 -2966 2968 0
628 -248 250 -2966 -2968 0
628 248 250 2966 -2968 0
628 -248 -250 -2966 2968 0
628 248 -250 2966 2968 0
628 -94 -95 2735 -2737 0
628 -94 95 2735 2737 0
628 94 -95 -2735 -2737 0
628 94 95 -2735 2737 0
628 -94 95 -2735 -2737 0
628 94 95 2735 -2737 0
628 -94 -95 -2735 2737 0
628 94 -95 2735 2737 0
628 77 -83 -90 -1931 0
628 77 -83 90 1931 0
628 -77 83 -90 -1931 0
628 -77 83 90 1931 0
628 -77 -83 90 -1931 0
628 77 83 90 -1931 0
628 -77 -83 -90 1931 0
628 77 83 -90 1931 0
628 264 -296 -333 -965 0
628 264 -296 333 965 0
628 -264 296 -333 -965 0
628 -264 296 333 965 0
628 -264 -296 333 -965 0
628 264 296 333 -965 0
628 -264 -296 -333 965 0
628 264 296 -333 965 0
628 -383 -386 3312 -3314 0
628 -383 386 3312 3314 0
628 383 -386 -3312 -3314 0
628 383 386 -3312 3314 0
628 -383 386 -3312 -3314 0
628 383 386 3312 -3314 0
628 -383 -386 -3312 3314 0
628 383 -386 3312 3314 0
628 -406 -460 1477 -1479 0
628 -406 460 1477 1479 0
628 406 -460 -1477 -1479 0
628 406 460 -1477 1479 0
628 -406 460 -1477 -1479 0
628 406 460 1477 -1479 0
628 -406 -460 -1477 1479 0
628 406 -460 1477 1479 0
628 -86 -98 1923 -1925 0
628 -86 98 1923 1925 0
628 86 -98 -1923 -1925 0
628 86 98 -1923 1925 0
628 -86 98 -1923 -1925 0
628 86 98 1923 -1925 0
628 -86 -98 -1923 1925 0
628 86 -98 1923 1925 0
628 -26 -57 2687 -2689 0
628 -26 57 2687 2689 0
628 26 -57 -2687 -2689 0
628 26 57 -2687 2689 0
628 -26 57 -2687 -2689 0
628 26 57 2687 -2689 0
628 -26 -57 -2687 2689 0
628 26 -57 2687 2689 0
628 -254 -255 2957 -2959 0
628 -254 255 2957 2959 0
628 254 -255 -2957 -2959 0
628 254 255 -2957 2959 0
628 -254 255 -2957 -2959 0
628 254 255 2957 -2959 0
628 -254 -255 -2957 2959 0
628 254 -255 2957 2959 0
628 -55 -88 2680 -2682 0
628 -55 88 2680 2682 0
628 55 -88 -2680 -2682 0
628 55 88 -2680 2682 0
628 -55 88 -2680 -2682 0
628 55 88 2680 -2682 0
628 -55 -88 -2680 2682 0
628 55 -88 2680 2682 0
628 -27 -28 2758 -2760 0
628 -27 28 2758 2760 0
628 27 -28 -2758 -2760 0
628 27 28 -2758 2760 0
628 -27 28 -2758 -2760 0
628 27 28 2758 -2760 0
628 -27 -28 -2758 2760 0
628 27 -28 2758 2760 0
628 250 -284 -319 -1378 0
628 250 -284 319 1378 0
628 -250 284 -319 -1378 0
628 -250 284 319 1378 0
628 -250 -284 319 -1378 0
628 250 284 319 -1378 0
628 -250 -284 -319 1378 0
628 250 284 -319 1378 0
628 -333 -366 1475 -1477 0
628 -333 366 1475 1477 0
628 333 -366 -1475 -1477 0
628 333 366 -1475 1477 0
628 -333 366 -1475 -1477 0
628 333 366 1475 -1477 0
628 -333 -366 -1475 1477 0
628 333 -366 1475 1477 0
628 -32 -33 2762 -2764 0
628 -32 33 2762 2764 0
628 32 -33 -2762 -2764 0
628 32 33 -2762 2764 0
628 -32 33 -2762 -2764 0
628 32 33 2762 -2764 0
628 -32 -33 -2762 2764 0
628 32 -33 2762 2764 0
628 -97 -104 1917 -1919 0
628 -97 104 1917 1919 0
628 97 -104 -1917 -1919 0
628 97 104 -1917 1919 0
628 -97 104 -1917 -1919 0
628 97 104 1917 -1919 0
628 -97 -104 -1917 1919 0
628 97 -104 1917 1919 0
628 -367 -404 958 -960 0
628 -367 404 958 960 0
628 367 -404 -958 -960 0
628 367 404 -958 960 0
628 -367 404 -958 -960 0
628 367 404 958 -960 0
628 -367 -404 -958 960 0
628 367 -404 958 960 0
628 -348 -385 825 -827 0
628 -348 385 825 827 0
628 348 -385 -825 -827 0
628 348 385 -825 827 0
628 -348 385 -825 -827 0
628 348 385 825 -827 0
628 -348 -385 -825 827 0
628 348 -385 825 827 0
628 -39 -41 2766 -2768 0
628 -39 41 2766 2768 0
628 39 -41 -2766 -2768 0
628 39 41 -2766 2768 0
628 -39 41 -2766 -2768 0
628 39 41 2766 -2768 0
628 -39 -41 -2766 2768 0
628 39 -41 2766 2768 0
628 -354 -356 3305 -3307 0
628 -354 356 3305 3307 0
628 354 -356 -3305 -3307 0
628 354 356 -3305 3307 0
628 -354 356 -3305 -3307 0
628 354 356 3305 -3307 0
628 -354 -356 -3305 3307 0
628 354 -356 3305 3307 0
628 -47 -52 2770 -2772 0
628 -47 52 2770 2772 0
628 47 -52 -2770 -2772 0
628 47 52 -2770 2772 0
628 -47 52 -2770 -2772 0
628 47 52 2770 -2772 0
628 -47 -52 -2770 2772 0
628 47 -52 2770 2772 0
628 -66 -71 2774 -2776 0
628 -66 71 2774 2776 0
628 66 -71 -2774 -2776 0
628 66 71 -2774 2776 0
628 -66 71 -2774 -2776 0
628 66 71 2774 -2776 0
628 -66 -71 -2774 2776 0
628 66 -71 2774 2776 0
628 75 -80 -91 -1910 0
628 75 -80 91 1910 0
628 -75 80 -91 -1910 0
628 -75 80 91 1910 0
628 -75 -80 91 -1910 0
628 75 80 91 -1910 0
628 -75 -80 -91 1910 0
628 75 80 -91 1910 0
628 241 -243 -244 -2952 0
628 241 -243 244 2952 0
628 -241 243 -244 -2952 0
628 -241 243 244 2952 0
628 -241 -243 244 -2952 0
628 241 243 244 -2952 0
628 -241 -243 -244 2952 0
628 241 243 -244 2952 0
628 -92 -93 2785 -2787 0
628 -92 93 2785 2787 0
628 92 -93 -2785 -2787 0
628 92 93 -2785 2787 0
628 -92 93 -2785 -2787 0
628 92 93 2785 -2787 0
628 -92 -93 -2785 2787 0
628 92 -93 2785 2787 0
628 -102 -185 1904 -1906 0
628 -102 185 1904 1906 0
628 102 -185 -1904 -1906 0
628 102 185 -1904 1906 0
628 -102 185 -1904 -1906 0
628 102 185 1904 -1906 0
628 -102 -185 -1904 1906 0
628 102 -185 1904 1906 0
628 -97 -99 2789 -2791 0
628 -97 99 2789 2791 0
628 97 -99 -2789 -2791 0
628 97 99 -2789 2791 0
628 -97 99 -2789 -2791 0
628 97 99 2789 -2791 0
628 -97 -99 -2789 2791 0
628 97 -99 2789 2791 0
628 -285 -291 3285 -3287 0
628 -285 291 3285 3287 0
628 285 -291 -3285 -3287 0
628 285 291 -3285 3287 0
628 -285 291 -3285 -3287 0
628 285 291 3285 -3287 0
628 -285 -291 -3285 3287 0
628 285 -291 3285 3287 0
628 -331 -366 950 -952 0
628 -331 366 950 952 0
628 331 -366 -950 -952 0
628 331 366 -950 952 0
628 -331 366 -950 -952 0
628 331 366 950 -952 0
628 -331 -366 -950 952 0
628 331 -366 950 952 0
628 -32 -190 1652 -1654 0
628 -32 190 1652 1654 0
628 32 -190 -1652 -1654 0
628 32 190 -1652 1654 0
628 -32 190 -1652 -1654 0
628 32 190 1652 -1654 0
628 -32 -190 -1652 1654 0
628 32 -190 1652 1654 0
628 -248 -251 2943 -2945 0
628 -248 251 2943 2945 0
628 248 -251 -2943 -2945 0
628 248 251 -2943 2945 0
628 -248 251 -2943 -2945 0
628 248 251 2943 -2945 0
628 -248 -251 -2943 2945 0
628 248 -251 2943 2945 0
628 -349 -350 3301 -3303 0
628 -349 350 3301 3303 0
628 349 -350 -3301 -3303 0
628 349 350 -3301 3303 0
628 -349 350 -3301 -3303 0
628 349 350 3301 -3303 0
628 -349 -350 -3301 3303 0
628 349 -350 3301 3303 0
628 -16 -20 2802 -2804 0
628 -16 20 2802 2804 0
628 16 -20 -2802 -2804 0
628 16 20 -2802 2804 0
628 -16 20 -2802 -2804 0
628 16 20 2802 -2804 0
628 -16 -20 -2802 2804 0
628 16 -20 2802 2804 0
628 -312 -314 3290 -3292 0
628 -312 314 3290 3292 0
628 312 -314 -3290 -3292 0
628 312 314 -3290 3292 0
628 -312 314 -3290 -3292 0
628 312 314 3290 -3292 0
628 -312 -314 -3290 3292 0
628 312 -314 3290 3292 0
628 -72 -73 2810 -2812 0
628 -72 73 2810 2812 0
628 72 -73 -2810 -2812 0
628 72 73 -2810 2812 0
628 -72 73 -2810 -2812 0
628 72 73 2810 -2812 0
628 -72 -73 -2810 2812 0
628 72 -73 2810 2812 0
628 -395 -419 945 -947 0
628 -395 419 945 947 0
628 395 -419 -945 -947 0
628 395 419 -945 947 0
628 -395 419 -945 -947 0
628 395 419 945 -947 0
628 -395 -419 -945 947 0
628 395 -419 945 947 0
628 -27 -28 2807 -2809 0
628 -27 28 2807 2809 0
628 27 -28 -2807 -2809 0
628 27 28 -2807 2809 0
628 -27 28 -2807 -2809 0
628 27 28 2807 -2809 0
628 -27 -28 -2807 2809 0
628 27 -28 2807 2809 0
628 -405 -459 1470 -1472 0
628 -405 459 1470 1472 0
628 405 -459 -1470 -1472 0
628 405 459 -1470 1472 0
628 -405 459 -1470 -1472 0
628 405 459 1470 -1472 0
628 -405 -459 -1470 1472 0
628 405 -459 1470 1472 0
628 -76 -79 2812 -2814 0
628 -76 79 2812 2814 0
628 76 -79 -2812 -2814 0
628 76 79 -2812 2814 0
628 -76 79 -2812 -2814 0
628 76 79 2812 -2814 0
628 -76 -79 -2812 2814 0
628 76 -79 2812 2814 0
628 -82 -85 2814 -2816 0
628 -82 85 2814 2816 0
628 82 -85 -2814 -2816 0
628 82 85 -2814 2816 0
628 -82 85 -2814 -2816 0
628 82 85 2814 -2816 0
628 -82 -85 -2814 2816 0
628 82 -85 2814 2816 0
628 -385 -459 1330 -1332 0
628 -385 459 1330 1332 0
628 385 -459 -1330 -1332 0
628 385 459 -1330 1332 0
628 -385 459 -1330 -1332 0
628 385 459 1330 -1332 0
628 -385 -459 -1330 1332 0
628 385 -459 1330 1332 0
628 -99 -189 1883 -1885 0
628 -99 189 1883 1885 0
628 99 -189 -1883 -1885 0
628 99 189 -1883 1885 0
628 -99 189 -1883 -1885 0
628 99 189 1883 -1885 0
628 -99 -189 -1883 1885 0
628 99 -189 1883 1885 0
628 262 -296 -331 -1462 0
628 262 -296 331 1462 0
628 -262 296 -331 -1462 0
628 -262 296 331 1462 0
628 -262 -296 331 -1462 0
628 262 296 331 -1462 0
628 -262 -296 -331 1462 0
628 262 296 -331 1462 0
628 -92 -93 2817 -2819 0
628 -92 93 2817 2819 0
628 92 -93 -2817 -2819 0
628 92 93 -2817 2819 0
628 -92 93 -2817 -2819 0
628 92 93 2817 -2819 0
628 -92 -93 -2817 2819 0
628 92 -93 2817 2819 0
628 -87 -92 1881 -1883 0
628 -87 92 1881 1883 0
628 87 -92 -1881 -1883 0
628 87 92 -1881 1883 0
628 -87 92 -1881 -1883 0
628 87 92 1881 -1883 0
628 -87 -92 -1881 1883 0
628 87 -92 1881 1883 0
628 -396 -457 1407 -1409 0
628 -396 457 1407 1409 0
628 396 -457 -1407 -1409 0
628 396 457 -1407 1409 0
628 -396 457 -1407 -1409 0
628 396 457 1407 -1409 0
628 -396 -457 -1407 1409 0
628 396 -457 1407 1409 0
628 -24 -27 2830 -2832 0
628 -24 27 2830 2832 0
628 24 -27 -2830 -2832 0
628 24 27 -2830 2832 0
628 -24 27 -2830 -2832 0
628 24 27 2830 -2832 0
628 -24 -27 -2830 2832 0
628 24 -27 2830 2832 0
628 -101 -181 1876 -1878 0
628 -101 181 1876 1878 0
628 101 -181 -1876 -1878 0
628 101 181 -1876 1878 0
628 -101 181 -1876 -1878 0
628 101 181 1876 -1878 0
628 -101 -181 -1876 1878 0
628 101 -181 1876 1878 0
628 -97 -101 2821 -2823 0
628 -97 101 2821 2823 0
628 97 -101 -2821 -2823 0
628 97 101 -2821 2823 0
628 -97 101 -2821 -2823 0
628 97 101 2821 -2823 0
628 -97 -101 -2821 2823 0
628 97 -101 2821 2823 0
628 -327 -328 3297 -3299 0
628 -327 328 3297 3299 0
628 327 -328 -3297 -3299 0
628 327 328 -3297 3299 0
628 -327 328 -3297 -3299 0
628 327 328 3297 -3299 0
628 -327 -328 -3297 3299 0
628 327 -328 3297 3299 0
628 -324 -364 1412 -1414 0
628 -324 364 1412 1414 0
628 324 -364 -1412 -1414 0
628 324 364 -1412 1414 0
628 -324 364 -1412 -1414 0
628 324 364 1412 -1414 0
628 -324 -364 -1412 1414 0
628 324 -364 1412 1414 0
628 3 -10 -13 -2828 0
628 3 -10 13 2828 0
628 -3 10 -13 -2828 0
628 -3 10 13 2828 0
628 -3 -10 13 -2828 0
628 3 10 13 -2828 0
628 -3 -10 -13 2828 0
628 3 10 -13 2828 0
628 -16 -23 2828 -2830 0
628 -16 23 2828 2830 0
628 16 -23 -2828 -2830 0
628 16 23 -2828 2830 0
628 -16 23 -2828 -2830 0
628 16 23 2828 -2830 0
628 -16 -23 -2828 2830 0
628 16 -23 2828 2830 0
628 -98 -100 1868 -1870 0
628 -98 100 1868 1870 0
628 98 -100 -1868 -1870 0
628 98 100 -1868 1870 0
628 -98 100 -1868 -1870 0
628 98 100 1868 -1870 0
628 -98 -100 -1868 1870 0
628 98 -100 1868 1870 0
628 -257 -258 2936 -2938 0
628 -257 258 2936 2938 0
628 257 -258 -2936 -2938 0
628 257 258 -2936 2938 0
628 -257 258 -2936 -2938 0
628 257 258 2936 -2938 0
628 -257 -258 -2936 2938 0
628 257 -258 2936 2938 0
628 -31 -34 2834 -2836 0
628 -31 34 2834 2836 0
628 31 -34 -2834 -2836 0
628 31 34 -2834 2836 0
628 -31 34 -2834 -2836 0
628 31 34 2834 -2836 0
628 -31 -34 -2834 2836 0
628 31 -34 2834 2836 0
628 -79 -82 2838 -2840 0
628 -79 82 2838 2840 0
628 79 -82 -2838 -2840 0
628 79 82 -2838 2840 0
628 -79 82 -2838 -2840 0
628 79 82 2838 -2840 0
628 -79 -82 -2838 2840 0
628 79 -82 2838 2840 0
628 -393 -417 931 -933 0
628 -393 417 931 933 0
628 393 -417 -931 -933 0
628 393 417 -931 933 0
628 -393 417 -931 -933 0
628 393 417 931 -933 0
628 -393 -417 -931 933 0
628 393 -417 931 933 0
628 -90 -97 1860 -1862 0
628 -90 97 1860 1862 0
628 90 -97 -1860 -1862 0
628 90 97 -1860 1862 0
628 -90 97 -1860 -1862 0
628 90 97 1860 -1862 0
628 -90 -97 -1860 1862 0
628 90 -97 1860 1862 0
628 -93 -96 2842 -2844 0
628 -93 96 2842 2844 0
628 93 -96 -2842 -2844 0
628 93 96 -2842 2844 0
628 -93 96 -2842 -2844 0
628 93 96 2842 -2844 0
628 -93 -96 -2842 2844 0
628 93 -96 2842 2844 0
628 -358 -398 1420 -1422 0
628 -358 398 1420 1422 0
628 358 -398 -1420 -1422 0
628 358 398 -1420 1422 0
628 -358 398 -1420 -1422 0
628 358 398 1420 -1422 0
628 -358 -398 -1420 1422 0
628 358 -398 1420 1422 0
628 240 -242 -243 -2942 0
628 240 -242 243 2942 0
628 -240 242 -243 -2942 0
628 -240 242 243 2942 0
628 -240 -242 243 -2942 0
628 240 242 243 -2942 0
628 -240 -242 -243 2942 0
628 240 242 -243 2942 0
628 -97 -99 2844 -2846 0
628 -97 99 2844 2846 0
628 97 -99 -2844 -2846 0
628 97 99 -2844 2846 0
628 -97 99 -2844 -2846 0
628 97 99 2844 -2846 0
628 -97 -99 -2844 2846 0
628 97 -99 2844 2846 0
628 -100 -103 2846 -2848 0
628 -100 103 2846 2848 0
628 100 -103 -2846 -2848 0
628 100 103 -2846 2848 0
628 -100 103 -2846 -2848 0
628 100 103 2846 -2848 0
628 -100 -103 -2846 2848 0
628 100 -103 2846 2848 0
628 -81 -82 2672 -2674 0
628 -81 82 2672 2674 0
628 81 -82 -2672 -2674 0
628 81 82 -2672 2674 0
628 -81 82 -2672 -2674 0
628 81 82 2672 -2674 0
628 -81 -82 -2672 2674 0
628 81 -82 2672 2674 0
628 16 -18 -19 -2678 0
628 16 -18 19 2678 0
628 -16 18 -19 -2678 0
628 -16 18 19 2678 0
628 -16 -18 19 -2678 0
628 16 18 19 -2678 0
628 -16 -18 -19 2678 0
628 16 18 -19 2678 0
628 -89 -96 1853 -1855 0
628 -89 96 1853 1855 0
628 89 -96 -1853 -1855 0
628 89 96 -1853 1855 0
628 -89 96 -1853 -1855 0
628 89 96 1853 -1855 0
628 -89 -96 -1853 1855 0
628 89 -96 1853 1855 0
628 242 -251 -253 -2924 0
628 242 -251 253 2924 0
628 -242 251 -253 -2924 0
628 -242 251 253 2924 0
628 -242 -251 253 -2924 0
628 242 251 253 -2924 0
628 -242 -251 -253 2924 0
628 242 251 -253 2924 0
628 -321 -325 3294 -3296 0
628 -321 325 3294 3296 0
628 321 -325 -3294 -3296 0
628 321 325 -3294 3296 0
628 -321 325 -3294 -3296 0
628 321 325 3294 -3296 0
628 -321 -325 -3294 3296 0
628 321 -325 3294 3296 0
628 -242 -243 2854 -2856 0
628 -242 243 2854 2856 0
628 242 -243 -2854 -2856 0
628 242 243 -2854 2856 0
628 -242 243 -2854 -2856 0
628 242 243 2854 -2856 0
628 -242 -243 -2854 2856 0
628 242 -243 2854 2856 0
628 -88 -95 1846 -1848 0
628 -88 95 1846 1848 0
628 88 -95 -1846 -1848 0
628 88 95 -1846 1848 0
628 -88 95 -1846 -1848 0
628 88 95 1846 -1848 0
628 -88 -95 -1846 1848 0
628 88 -95 1846 1848 0
628 -399 -416 924 -926 0
628 -399 416 924 926 0
628 399 -416 -924 -926 0
628 399 416 -924 926 0
628 -399 416 -924 -926 0
628 399 416 924 -926 0
628 -399 -416 -924 926 0
628 399 -416 924 926 0
628 -246 -247 2858 -2860 0
628 -246 247 2858 2860 0
628 246 -247 -2858 -2860 0
628 246 247 -2858 2860 0
628 -246 247 -2858 -2860 0
628 246 247 2858 -2860 0
628 -246 -247 -2858 2860 0
628 246 -247 2858 2860 0
628 -404 -458 1463 -1465 0
628 -404 458 1463 1465 0
628 404 -458 -1463 -1465 0
628 404 458 -1463 1465 0
628 -404 458 -1463 -1465 0
628 404 458 1463 -1465 0
628 -404 -458 -1463 1465 0
628 404 -458 1463 1465 0
628 -250 -251 2862 -2864 0
628 -250 251 2862 2864 0
628 250 -251 -2862 -2864 0
628 250 251 -2862 2864 0
628 -250 251 -2862 -2864 0
628 250 251 2862 -2864 0
628 -250 -251 -2862 2864 0
628 250 -251 2862 2864 0
628 -87 -94 1839 -1841 0
628 -87 94 1839 1841 0
628 87 -94 -1839 -1841 0
628 87 94 -1839 1841 0
628 -87 94 -1839 -1841 0
628 87 94 1839 -1841 0
628 -87 -94 -1839 1841 0
628 87 -94 1839 1841 0
628 -251 -253 2933 -2935 0
628 -251 253 2933 2935 0
628 251 -253 -2933 -2935 0
628 251 253 -2933 2935 0
628 -251 253 -2933 -2935 0
628 251 253 2933 -2935 0
628 -251 -253 -2933 2935 0
628 251 -253 2933 2935 0
628 -242 -243 2868 -2870 0
628 -242 243 2868 2870 0
628 242 -243 -2868 -2870 0
628 242 243 -2868 2870 0
628 -242 243 -2868 -2870 0
628 242 243 2868 -2870 0
628 -242 -243 -2868 2870 0
628 242 -243 2868 2870 0
628 -254 -255 2873 -2875 0
628 -254 255 2873 2875 0
628 254 -255 -2873 -2875 0
628 254 255 -2873 2875 0
628 -254 255 -2873 -2875 0
628 254 255 2873 -2875 0
628 -254 -255 -2873 2875 0
628 254 -255 2873 2875 0
628 73 -84 -86 -1833 0
628 73 -84 86 1833 0
628 -73 84 -86 -1833 0
628 -73 84 86 1833 0
628 -73 -84 86 -1833 0
628 73 84 86 -1833 0
628 -73 -84 -86 1833 0
628 73 84 -86 1833 0
628 -361 -398 916 -918 0
628 -361 398 916 918 0
628 361 -398 -916 -918 0
628 361 398 -916 918 0
628 -361 398 -916 -918 0
628 361 398 916 -918 0
628 -361 -398 -916 918 0
628 361 -398 916 918 0
628 -244 -245 2870 -2872 0
628 -244 245 2870 2872 0
628 244 -245 -2870 -2872 0
628 244 245 -2870 2872 0
628 -244 245 -2870 -2872 0
628 244 245 2870 -2872 0
628 -244 -245 -2870 2872 0
628 244 -245 2870 2872 0
628 -255 -258 2924 -2926 0
628 -255 258 2924 2926 0
628 255 -258 -2924 -2926 0
628 255 258 -2924 2926 0
628 -255 258 -2924 -2926 0
628 255 258 2924 -2926 0
628 -255 -258 -2924 2926 0
628 255 -258 2924 2926 0
628 243 -246 -247 -2930 0
628 243 -246 247 2930 0
628 -243 246 -247 -2930 0
628 -243 246 247 2930 0
628 -243 -246 247 -2930 0
628 243 246 247 -2930 0
628 -243 -246 -247 2930 0
628 243 246 -247 2930 0
628 239 -240 -242 -2912 0
628 239 -240 242 2912 0
628 -239 240 -242 -2912 0
628 -239 240 242 2912 0
628 -239 -240 242 -2912 0
628 239 240 242 -2912 0
628 -239 -240 -242 2912 0
628 239 240 -242 2912 0
628 -255 -257 2882 -2884 0
628 -255 257 2882 2884 0
628 255 -257 -2882 -2884 0
628 255 257 -2882 2884 0
628 -255 257 -2882 -2884 0
628 255 257 2882 -2884 0
628 -255 -257 -2882 2884 0
628 255 -257 2882 2884 0
628 -335 -368 1440 -1442 0
628 -335 368 1440 1442 0
628 335 -368 -1440 -1442 0
628 335 368 -1440 1442 0
628 -335 368 -1440 -1442 0
628 335 368 1440 -1442 0
628 -335 -368 -1440 1442 0
628 335 -368 1440 1442 0
628 -256 -258 2888 -2890 0
628 -256 258 2888 2890 0
628 256 -258 -2888 -2890 0
628 256 258 -2888 2890 0
628 -256 258 -2888 -2890 0
628 256 258 2888 -2890 0
628 -256 -258 -2888 2890 0
628 256 -258 2888 2890 0
628 -256 -258 2900 -2902 0
628 -256 258 2900 2902 0
628 256 -258 -2900 -2902 0
628 256 258 -2900 2902 0
628 -256 258 -2900 -2902 0
628 256 258 2900 -2902 0
628 -256 -258 -2900 2902 0
628 256 -258 2900 2902 0
628 -242 -243 2893 -2895 0
628 -242 243 2893 2895 0
628 242 -243 -2893 -2895 0
628 242 243 -2893 2895 0
628 -242 243 -2893 -2895 0
628 242 243 2893 -2895 0
628 -242 -243 -2893 2895 0
628 242 -243 2893 2895 0
628 -70 -196 1820 -1822 0
628 -70 196 1820 1822 0
628 70 -196 -1820 -1822 0
628 70 196 -1820 1822 0
628 -70 196 -1820 -1822 0
628 70 196 1820 -1822 0
628 -70 -196 -1820 1822 0
628 70 -196 1820 1822 0
628 -253 -254 2898 -2900 0
628 -253 254 2898 2900 0
628 253 -254 -2898 -2900 0
628 253 254 -2898 2900 0
628 -253 254 -2898 -2900 0
628 253 254 2898 -2900 0
628 -253 -254 -2898 2900 0
628 253 -254 2898 2900 0
628 -244 -245 2895 -2897 0
628 -244 245 2895 2897 0
628 244 -245 -2895 -2897 0
628 244 245 -2895 2897 0
628 -244 245 -2895 -2897 0
628 244 245 2895 -2897 0
628 -244 -245 -2895 2897 0
628 244 -245 2895 2897 0
628 244 -278 -313 -1336 0
628 244 -278 313 1336 0
628 -244 278 -313 -1336 0
628 -244 278 313 1336 0
628 -244 -278 313 -1336 0
628 244 278 313 -1336 0
628 -244 -278 -313 1336 0
628 244 278 -313 1336 0
628 40 -46 -53 -1819 0
628 40 -46 53 1819 0
628 -40 46 -53 -1819 0
628 -40 46 53 1819 0
628 -40 -46 53 -1819 0
628 40 46 53 -1819 0
628 -40 -46 -53 1819 0
628 40 46 -53 1819 0
628 -325 -360 908 -910 0
628 -325 360 908 910 0
628 325 -360 -908 -910 0
628 325 360 -908 910 0
628 -325 360 -908 -910 0
628 325 360 908 -910 0
628 -325 -360 -908 910 0
628 325 -360 908 910 0
628 -31 -196 1645 -1647 0
628 -31 196 1645 1647 0
628 31 -196 -1645 -1647 0
628 31 196 -1645 1647 0
628 -31 196 -1645 -1647 0
628 31 196 1645 -1647 0
628 -31 -196 -1645 1647 0
628 31 -196 1645 1647 0
628 -253 -256 2905 -2907 0
628 -253 256 2905 2907 0
628 253 -256 -2905 -2907 0
628 253 256 -2905 2907 0
628 -253 256 -2905 -2907 0
628 253 256 2905 -2907 0
628 -253 -256 -2905 2907 0
628 253 -256 2905 2907 0
628 -52 -57 1811 -1813 0
628 -52 57 1811 1813 0
628 52 -57 -1811 -1813 0
628 52 57 -1811 1813 0
628 -52 57 -1811 -1813 0
628 52 57 1811 -1813 0
628 -52 -57 -1811 1813 0
628 52 -57 1811 1813 0
628 -402 -456 1449 -1451 0
628 -402 456 1449 1451 0
628 402 -456 -1449 -1451 0
628 402 456 -1449 1451 0
628 -402 456 -1449 -1451 0
628 402 456 1449 -1451 0
628 -402 -456 -1449 1451 0
628 402 -456 1449 1451 0
628 -256 -258 2918 -2920 0
628 -256 258 2918 2920 0
628 256 -258 -2918 -2920 0
628 256 258 -2918 2920 0
628 -256 258 -2918 -2920 0
628 256 258 2918 -2920 0
628 -256 -258 -2918 2920 0
628 256 -258 2918 2920 0
628 -68 -194 1806 -1808 0
628 -68 194 1806 1808 0
628 68 -194 -1806 -1808 0
628 68 194 -1806 1808 0
628 -68 194 -1806 -1808 0
628 68 194 1806 -1808 0
628 -68 -194 -1806 1808 0
628 68 -194 1806 1808 0
628 -250 -253 2915 -2917 0
628 -250 253 2915 2917 0
628 250 -253 -2915 -2917 0
628 250 253 -2915 2917 0
628 -250 253 -2915 -2917 0
628 250 253 2915 -2917 0
628 -250 -253 -2915 2917 0
628 250 -253 2915 2917 0
628 241 -242 -245 -3326 0
628 241 -242 245 3326 0
628 -241 242 -245 -3326 0
628 -241 242 245 3326 0
628 -241 -242 245 -3326 0
628 241 242 245 -3326 0
628 -241 -242 -245 3326 0
628 241 242 -245 3326 0
628 9 -12 -13 -2666 0
628 9 -12 13 2666 0
628 -9 12 -13 -2666 0
628 -9 12 13 2666 0
628 -9 -12 13 -2666 0
628 9 12 13 -2666 0
628 -9 -12 -13 2666 0
628 9 12 -13 2666 0
628 -51 -63 1804 -1806 0
628 -51 63 1804 1806 0
628 51 -63 -1804 -1806 0
628 51 63 -1804 1806 0
628 -51 63 -1804 -1806 0
628 51 63 1804 -1806 0
628 -51 -63 -1804 1806 0
628 51 -63 1804 1806 0
628 -249 -250 2931 -2933 0
628 -249 250 2931 2933 0
628 249 -250 -2931 -2933 0
628 249 250 -2931 2933 0
628 -249 250 -2931 -2933 0
628 249 250 2931 -2933 0
628 -249 -250 -2931 2933 0
628 249 -250 2931 2933 0
628 -243 -244 2912 -2914 0
628 -243 244 2912 2914 0
628 243 -244 -2912 -2914 0
628 243 244 -2912 2914 0
628 -243 244 -2912 -2914 0
628 243 244 2912 -2914 0
628 -243 -244 -2912 2914 0
628 243 -244 2912 2914 0
628 -403 -457 1456 -1458 0
628 -403 457 1456 1458 0
628 403 -457 -1456 -1458 0
628 403 457 -1456 1458 0
628 -403 457 -1456 -1458 0
628 403 457 1456 -1458 0
628 -403 -457 -1456 1458 0
628 403 -457 1456 1458 0
628 -45 -46 2668 -2670 0
628 -45 46 2668 2670 0
628 45 -46 -2668 -2670 0
628 45 46 -2668 2670 0
628 -45 46 -2668 -2670 0
628 45 46 2668 -2670 0
628 -45 -46 -2668 2670 0
628 45 -46 2668 2670 0
628 261 -295 -330 -1455 0
628 261 -295 330 1455 0
628 -261 295 -330 -1455 0
628 -261 295 330 1455 0
628 -261 -295 330 -1455 0
628 261 295 330 -1455 0
628 -261 -295 -330 1455 0
628 261 295 -330 1455 0
628 -21 -26 1643 -1645 0
628 -21 26 1643 1645 0
628 21 -26 -1643 -1645 0
628 21 26 -1643 1645 0
628 -21 26 -1643 -1645 0
628 21 26 1643 -1645 0
628 -21 -26 -1643 1645 0
628 21 -26 1643 1645 0
628 241 -242 -243 -2988 0
628 241 -242 243 2988 0
628 -241 242 -243 -2988 0
628 -241 242 243 2988 0
628 -241 -242 243 -2988 0
628 241 242 243 -2988 0
628 -241 -242 -243 2988 0
628 241 242 -243 2988 0
628 -50 -62 1797 -1799 0
628 -50 62 1797 1799 0
628 50 -62 -1797 -1799 0
628 50 62 -1797 1799 0
628 -50 62 -1797 -1799 0
628 50 62 1797 -1799 0
628 -50 -62 -1797 1799 0
628 50 -62 1797 1799 0
628 -257 -258 2946 -2948 0
628 -257 258 2946 2948 0
628 257 -258 -2946 -2948 0
628 257 258 -2946 2948 0
628 -257 258 -2946 -2948 0
628 257 258 2946 -2948 0
628 -257 -258 -2946 2948 0
628 257 -258 2946 2948 0
628 260 -301 -336 -1448 0
628 260 -301 336 1448 0
628 -260 301 -336 -1448 0
628 -260 301 336 1448 0
628 -260 -301 336 -1448 0
628 260 301 336 -1448 0
628 -260 -301 -336 1448 0
628 260 301 -336 1448 0
628 -251 -253 2955 -2957 0
628 -251 253 2955 2957 0
628 251 -253 -2955 -2957 0
628 251 253 -2955 2957 0
628 -251 253 -2955 -2957 0
628 251 253 2955 -2957 0
628 -251 -253 -2955 2957 0
628 251 -253 2955 2957 0
628 36 -49 -56 -1791 0
628 36 -49 56 1791 0
628 -36 49 -56 -1791 0
628 -36 49 56 1791 0
628 -36 -49 56 -1791 0
628 36 49 56 -1791 0
628 -36 -49 -56 1791 0
628 36 49 -56 1791 0
628 -316 -351 894 -896 0
628 -316 351 894 896 0
628 316 -351 -894 -896 0
628 316 351 -894 896 0
628 -316 351 -894 -896 0
628 316 351 894 -896 0
628 -316 -351 -894 896 0
628 316 -351 894 896 0
628 -247 -249 2990 -2992 0
628 -247 249 2990 2992 0
628 247 -249 -2990 -2992 0
628 247 249 -2990 2992 0
628 -247 249 -2990 -2992 0
628 247 249 2990 -2992 0
628 -247 -249 -2990 2992 0
628 247 -249 2990 2992 0
628 -60 -65 1784 -1786 0
628 -60 65 1784 1786 0
628 60 -65 -1784 -1786 0
628 60 65 -1784 1786 0
628 -60 65 -1784 -1786 0
628 60 65 1784 -1786 0
628 -60 -65 -1784 1786 0
628 60 -65 1784 1786 0
628 -254 -255 2994 -2996 0
628 -254 255 2994 2996 0
628 254 -255 -2994 -2996 0
628 254 255 -2994 2996 0
628 -254 255 -2994 -2996 0
628 254 255 2994 -2996 0
628 -254 -255 -2994 2996 0
628 254 -255 2994 2996 0
628 -246 -249 3000 -3002 0
628 -246 249 3000 3002 0
628 246 -249 -3000 -3002 0
628 246 249 -3000 3002 0
628 -246 249 -3000 -3002 0
628 246 249 3000 -3002 0
628 -246 -249 -3000 3002 0
628 246 -249 3000 3002 0
628 -387 -420 889 -891 0
628 -387 420 889 891 0
628 387 -420 -889 -891 0
628 387 420 -889 891 0
628 -387 420 -889 -891 0
628 387 420 889 -891 0
628 -387 -420 -889 891 0
628 387 -420 889 891 0
628 -347 -384 818 -820 0
628 -347 384 818 820 0
628 347 -384 -818 -820 0
628 347 384 -818 820 0
628 -347 384 -818 -820 0
628 347 384 818 -820 0
628 -347 -384 -818 820 0
628 347 -384 818 820 0
628 -20 -25 1636 -1638 0
628 -20 25 1636 1638 0
628 20 -25 -1636 -1638 0
628 20 25 -1636 1638 0
628 -20 25 -1636 -1638 0
628 20 25 1636 -1638 0
628 -20 -25 -1636 1638 0
628 20 -25 1636 1638 0
628 -69 -189 1771 -1773 0
628 -69 189 1771 1773 0
628 69 -189 -1771 -1773 0
628 69 189 -1771 1773 0
628 -69 189 -1771 -1773 0
628 69 189 1771 -1773 0
628 -69 -189 -1771 1773 0
628 69 -189 1771 1773 0
628 -14 -43 2644 -2646 0
628 -14 43 2644 2646 0
628 14 -43 -2644 -2646 0
628 14 43 -2644 2646 0
628 -14 43 -2644 -2646 0
628 14 43 2644 -2646 0
628 -14 -43 -2644 2646 0
628 14 -43 2644 2646 0
628 -48 -78 2648 -2650 0
628 -48 78 2648 2650 0
628 48 -78 -2648 -2650 0
628 48 78 -2648 2650 0
628 -48 78 -2648 -2650 0
628 48 78 2648 -2650 0
628 -48 -78 -2648 2650 0
628 48 -78 2648 2650 0
628 -290 -292 3050 -3052 0
628 -290 292 3050 3052 0
628 290 -292 -3050 -3052 0
628 290 292 -3050 3052 0
628 -290 292 -3050 -3052 0
628 290 292 3050 -3052 0
628 -290 -292 -3050 3052 0
628 290 -292 3050 3052 0
628 -249 -251 3013 -3015 0
628 -249 251 3013 3015 0
628 249 -251 -3013 -3015 0
628 249 251 -3013 3015 0
628 -249 251 -3013 -3015 0
628 249 251 3013 -3015 0
628 -249 -251 -3013 3015 0
628 249 -251 3013 3015 0
628 -281 -282 3026 -3028 0
628 -281 282 3026 3028 0
628 281 -282 -3026 -3028 0
628 281 282 -3026 3028 0
628 -281 282 -3026 -3028 0
628 281 282 3026 -3028 0
628 -281 -282 -3026 3028 0
628 281 -282 3026 3028 0
628 -279 -280 3024 -3026 0
628 -279 280 3024 3026 0
628 279 -280 -3024 -3026 0
628 279 280 -3024 3026 0
628 -279 280 -3024 -3026 0
628 279 280 3024 -3026 0
628 -279 -280 -3024 3026 0
628 279 -280 3024 3026 0
628 -68 -188 1764 -1766 0
628 -68 188 1764 1766 0
628 68 -188 -1764 -1766 0
628 68 188 -1764 1766 0
628 -68 188 -1764 -1766 0
628 68 188 1764 -1766 0
628 -68 -188 -1764 1766 0
628 68 -188 1764 1766 0
628 -384 -458 1323 -1325 0
628 -384 458 1323 1325 0
628 384 -458 -1323 -1325 0
628 384 458 -1323 1325 0
628 -384 458 -1323 -1325 0
628 384 458 1323 -1325 0
628 -384 -458 -1323 1325 0
628 384 -458 1323 1325 0
628 -285 -286 3030 -3032 0
628 -285 286 3030 3032 0
628 285 -286 -3030 -3032 0
628 285 286 -3030 3032 0
628 -285 286 -3030 -3032 0
628 285 286 3030 -3032 0
628 -285 -286 -3030 3032 0
628 285 -286 3030 3032 0
628 279 -281 -288 -3050 0
628 279 -281 288 3050 0
628 -279 281 -288 -3050 0
628 -279 281 288 3050 0
628 -279 -281 288 -3050 0
628 279 281 288 -3050 0
628 -279 -281 -288 3050 0
628 279 281 -288 3050 0
628 40 -45 -56 -1763 0
628 40 -45 56 1763 0
628 -40 45 -56 -1763 0
628 -40 45 56 1763 0
628 -40 -45 56 -1763 0
628 40 45 56 -1763 0
628 -40 -45 -56 1763 0
628 40 45 -56 1763 0
628 -408 -460 1491 -1493 0
628 -408 460 1491 1493 0
628 408 -460 -1491 -1493 0
628 408 460 -1491 1493 0
628 -408 460 -1491 -1493 0
628 408 460 1491 -1493 0
628 -408 -460 -1491 1493 0
628 408 -460 1491 1493 0
628 275 -276 -277 -3062 0
628 275 -276 277 3062 0
628 -275 276 -277 -3062 0
628 -275 276 277 3062 0
628 -275 -276 277 -3062 0
628 275 276 277 -3062 0
628 -275 -276 -277 3062 0
628 275 276 -277 3062 0
628 -60 -67 1756 -1758 0
628 -60 67 1756 1758 0
628 60 -67 -1756 -1758 0
628 60 67 -1756 1758 0
628 -60 67 -1756 -1758 0
628 60 67 1756 -1758 0
628 -60 -67 -1756 1758 0
628 60 -67 1756 1758 0
628 243 -275 -312 -818 0
628 243 -275 312 818 0
628 -243 275 -312 -818 0
628 -243 275 312 818 0
628 -243 -275 312 -818 0
628 243 275 312 -818 0
628 -243 -275 -312 818 0
628 243 275 -312 818 0
628 244 -246 -253 -2882 0
628 244 -246 253 2882 0
628 -244 246 -253 -2882 0
628 -244 246 253 2882 0
628 -244 -246 253 -2882 0
628 244 246 253 -2882 0
628 -244 -246 -253 2882 0
628 244 246 -253 2882 0
628 245 -247 -254 -2888 0
628 245 -247 254 2888 0
628 -245 247 -254 -2888 0
628 -245 247 254 2888 0
628 -245 -247 254 -2888 0
628 245 247 254 -2888 0
628 -245 -247 -254 2888 0
628 245 247 -254 2888 0
628 -401 -462 1442 -1444 0
628 -401 462 1442 1444 0
628 401 -462 -1442 -1444 0
628 401 462 -1442 1444 0
628 -401 462 -1442 -1444 0
628 401 462 1442 -1444 0
628 -401 -462 -1442 1444 0
628 401 -462 1442 1444 0
628 -54 -59 1748 -1750 0
628 -54 59 1748 1750 0
628 54 -59 -1748 -1750 0
628 54 59 -1748 1750 0
628 -54 59 -1748 -1750 0
628 54 59 1748 -1750 0
628 -54 -59 -1748 1750 0
628 54 -59 1748 1750 0
628 -355 -392 874 -876 0
628 -355 392 874 876 0
628 355 -392 -874 -876 0
628 355 392 -874 876 0
628 -355 392 -874 -876 0
628 355 392 874 -876 0
628 -355 -392 -874 876 0
628 355 -392 874 876 0
628 9 -11 -12 -2598 0
628 9 -11 12 2598 0
628 -9 11 -12 -2598 0
628 -9 11 12 2598 0
628 -9 -11 12 -2598 0
628 9 11 12 -2598 0
628 -9 -11 -12 2598 0
628 9 11 -12 2598 0
628 -291 -293 3074 -3076 0
628 -291 293 3074 3076 0
628 291 -293 -3074 -3076 0
628 291 293 -3074 3076 0
628 -291 293 -3074 -3076 0
628 291 293 3074 -3076 0
628 -291 -293 -3074 3076 0
628 291 -293 3074 3076 0
628 277 -286 -288 -3092 0
628 277 -286 288 3092 0
628 -277 286 -288 -3092 0
628 -277 286 288 3092 0
628 -277 -286 288 -3092 0
628 277 286 288 -3092 0
628 -277 -286 -288 3092 0
628 277 286 -288 3092 0
628 37 -49 -53 -1742 0
628 37 -49 53 1742 0
628 -37 49 -53 -1742 0
628 -37 49 53 1742 0
628 -37 -49 53 -1742 0
628 37 49 53 -1742 0
628 -37 -49 -53 1742 0
628 37 49 -53 1742 0
628 -104 -197 2848 -2850 0
628 -104 197 2848 2850 0
628 104 -197 -2848 -2850 0
628 104 197 -2848 2850 0
628 -104 197 -2848 -2850 0
628 104 197 2848 -2850 0
628 -104 -197 -2848 2850 0
628 104 -197 2848 2850 0
628 -285 -288 3083 -3085 0
628 -285 288 3083 3085 0
628 285 -288 -3083 -3085 0
628 285 288 -3083 3085 0
628 -285 288 -3083 -3085 0
628 285 288 3083 -3085 0
628 -285 -288 -3083 3085 0
628 285 -288 3083 3085 0
628 -57 -64 1735 -1737 0
628 -57 64 1735 1737 0
628 57 -64 -1735 -1737 0
628 57 64 -1735 1737 0
628 -57 64 -1735 -1737 0
628 57 64 1735 -1737 0
628 -57 -64 -1735 1737 0
628 57 -64 1735 1737 0
628 -354 -391 867 -869 0
628 -354 391 867 869 0
628 354 -391 -867 -869 0
628 354 391 -867 869 0
628 -354 391 -867 -869 0
628 354 391 867 -869 0
628 -354 -391 -867 869 0
628 354 -391 867 869 0
628 254 -288 -323 -1406 0
628 254 -288 323 1406 0
628 -254 288 -323 -1406 0
628 -254 288 323 1406 0
628 -254 -288 323 -1406 0
628 254 288 323 -1406 0
628 -254 -288 -323 1406 0
628 254 288 -323 1406 0
628 -285 -286 3100 -3102 0
628 -285 286 3100 3102 0
628 285 -286 -3100 -3102 0
628 285 286 -3100 3102 0
628 -285 286 -3100 -3102 0
628 285 286 3100 -3102 0
628 -285 -286 -3100 3102 0
628 285 -286 3100 3102 0
628 36 -48 -52 -1735 0
628 36 -48 52 1735 0
628 -36 48 -52 -1735 0
628 -36 48 52 1735 0
628 -36 -48 52 -1735 0
628 36 48 52 -1735 0
628 -36 -48 -52 1735 0
628 36 48 -52 1735 0
628 250 -282 -319 -867 0
628 250 -282 319 867 0
628 -250 282 -319 -867 0
628 -250 282 319 867 0
628 -250 -282 319 -867 0
628 250 282 319 -867 0
628 -250 -282 -319 867 0
628 250 282 -319 867 0
628 -353 -354 3240 -3242 0
628 -353 354 3240 3242 0
628 353 -354 -3240 -3242 0
628 353 354 -3240 3242 0
628 -353 354 -3240 -3242 0
628 353 354 3240 -3242 0
628 -353 -354 -3240 3242 0
628 353 -354 3240 3242 0
628 -360 -361 3254 -3256 0
628 -360 361 3254 3256 0
628 360 -361 -3254 -3256 0
628 360 361 -3254 3256 0
628 -360 361 -3254 -3256 0
628 360 361 3254 -3256 0
628 -360 -361 -3254 3256 0
628 360 -361 3254 3256 0
628 -393 -461 1435 -1437 0
628 -393 461 1435 1437 0
628 393 -461 -1435 -1437 0
628 393 461 -1435 1437 0
628 -393 461 -1435 -1437 0
628 393 461 1435 -1437 0
628 -393 -461 -1435 1437 0
628 393 -461 1435 1437 0
628 -383 -457 1316 -1318 0
628 -383 457 1316 1318 0
628 383 -457 -1316 -1318 0
628 383 457 -1316 1318 0
628 -383 457 -1316 -1318 0
628 383 457 1316 -1318 0
628 -383 -457 -1316 1318 0
628 383 -457 1316 1318 0
628 -13 -44 2632 -2634 0
628 -13 44 2632 2634 0
628 13 -44 -2632 -2634 0
628 13 44 -2632 2634 0
628 -13 44 -2632 -2634 0
628 13 44 2632 -2634 0
628 -13 -44 -2632 2634 0
628 13 -44 2632 2634 0
628 -248 -249 2860 -2862 0
628 -248 249 2860 2862 0
628 248 -249 -2860 -2862 0
628 248 249 -2860 2862 0
628 -248 249 -2860 -2862 0
628 248 249 2860 -2862 0
628 -248 -249 -2860 2862 0
628 248 -249 2860 2862 0
628 -390 -416 861 -863 0
628 -390 416 861 863 0
628 390 -416 -861 -863 0
628 390 416 -861 863 0
628 -390 416 -861 -863 0
628 390 416 861 -863 0
628 -390 -416 -861 863 0
628 390 -416 861 863 0
628 -292 -293 3104 -3106 0
628 -292 293 3104 3106 0
628 292 -293 -3104 -3106 0
628 292 293 -3104 3106 0
628 -292 293 -3104 -3106 0
628 292 293 3104 -3106 0
628 -292 -293 -3104 3106 0
628 292 -293 3104 3106 0
628 -281 -283 3110 -3112 0
628 -281 283 3110 3112 0
628 281 -283 -3110 -3112 0
628 281 283 -3110 3112 0
628 -281 283 -3110 -3112 0
628 281 283 3110 -3112 0
628 -281 -283 -3110 3112 0
628 281 -283 3110 3112 0
628 -56 -63 1720 -1722 0
628 -56 63 1720 1722 0
628 56 -63 -1720 -1722 0
628 56 63 -1720 1722 0
628 -56 63 -1720 -1722 0
628 56 63 1720 -1722 0
628 -56 -63 -1720 1722 0
628 56 -63 1720 1722 0
628 -285 -286 3122 -3124 0
628 -285 286 3122 3124 0
628 285 -286 -3122 -3124 0
628 285 286 -3122 3124 0
628 -285 286 -3122 -3124 0
628 285 286 3122 -3124 0
628 -285 -286 -3122 3124 0
628 285 -286 3122 3124 0
628 -292 -293 3114 -3116 0
628 -292 293 3114 3116 0
628 292 -293 -3114 -3116 0
628 292 293 -3114 3116 0
628 -292 293 -3114 -3116 0
628 292 293 3114 -3116 0
628 -292 -293 -3114 3116 0
628 292 -293 3114 3116 0
628 -278 -281 3132 -3134 0
628 -278 281 3132 3134 0
628 278 -281 -3132 -3134 0
628 278 281 -3132 3134 0
628 -278 281 -3132 -3134 0
628 278 281 3132 -3134 0
628 -278 -281 -3132 3134 0
628 278 -281 3132 3134 0
628 -327 -360 1433 -1435 0
628 -327 360 1433 1435 0
628 327 -360 -1433 -1435 0
628 327 360 -1433 1435 0
628 -327 360 -1433 -1435 0
628 327 360 1433 -1435 0
628 -327 -360 -1433 1435 0
628 327 -360 1433 1435 0
628 -64 -181 1715 -1717 0
628 -64 181 1715 1717 0
628 64 -181 -1715 -1717 0
628 64 181 -1715 1717 0
628 -64 181 -1715 -1717 0
628 64 181 1715 -1717 0
628 -64 -181 -1715 1717 0
628 64 -181 1715 1717 0
628 239 -240 -241 -2868 0
628 239 -240 241 2868 0
628 -239 240 -241 -2868 0
628 -239 240 241 2868 0
628 -239 -240 241 -2868 0
628 239 240 241 -2868 0
628 -239 -240 -241 2868 0
628 239 240 -241 2868 0
628 -244 -245 2856 -2858 0
628 -244 245 2856 2858 0
628 244 -245 -2856 -2858 0
628 244 245 -2856 2858 0
628 -244 245 -2856 -2858 0
628 244 245 2856 -2858 0
628 -244 -245 -2856 2858 0
628 244 -245 2856 2858 0
628 -290 -291 3137 -3139 0
628 -290 291 3137 3139 0
628 290 -291 -3137 -3139 0
628 290 291 -3137 3139 0
628 -290 291 -3137 -3139 0
628 290 291 3137 -3139 0
628 -290 -291 -3137 3139 0
628 290 -291 3137 3139 0
628 -29 -178 1568 -1570 0
628 -29 178 1568 1570 0
628 29 -178 -1568 -1570 0
628 29 178 -1568 1570 0
628 -29 178 -1568 -1570 0
628 29 178 1568 -1570 0
628 -29 -178 -1568 1570 0
628 29 -178 1568 1570 0
628 -311 -346 810 -812 0
628 -311 346 810 812 0
628 311 -346 -810 -812 0
628 311 346 -810 812 0
628 -311 346 -810 -812 0
628 311 346 810 -812 0
628 -311 -346 -810 812 0
628 311 -346 810 812 0
628 -277 -279 3143 -3145 0
628 -277 279 3143 3145 0
628 277 -279 -3143 -3145 0
628 277 279 -3143 3145 0
628 -277 279 -3143 -3145 0
628 277 279 3143 -3145 0
628 -277 -279 -3143 3145 0
628 277 -279 3143 3145 0
628 344 -345 -346 -3248 0
628 344 -345 346 3248 0
628 -344 345 -346 -3248 0
628 -344 345 346 3248 0
628 -344 -345 346 -3248 0
628 344 345 346 -3248 0
628 -344 -345 -346 3248 0
628 344 345 -346 3248 0
628 -290 -291 3148 -3150 0
628 -290 291 3148 3150 0
628 290 -291 -3148 -3150 0
628 290 291 -3148 3150 0
628 -290 291 -3148 -3150 0
628 290 291 3148 -3150 0
628 -290 -291 -3148 3150 0
628 290 -291 3148 3150 0
628 -282 -284 3145 -3147 0
628 -282 284 3145 3147 0
628 282 -284 -3145 -3147 0
628 282 284 -3145 3147 0
628 -282 284 -3145 -3147 0
628 282 284 3145 -3147 0
628 -282 -284 -3145 3147 0
628 282 -284 3145 3147 0
628 -28 -30 1574 -1576 0
628 -28 30 1574 1576 0
628 28 -30 -1574 -1576 0
628 28 30 -1574 1576 0
628 -28 30 -1574 -1576 0
628 28 30 1574 -1576 0
628 -28 -30 -1574 1576 0
628 28 -30 1574 1576 0
628 -310 -323 3411 -3413 0
628 -310 323 3411 3413 0
628 310 -323 -3411 -3413 0
628 310 323 -3411 3413 0
628 -310 323 -3411 -3413 0
628 310 323 3411 -3413 0
628 -310 -323 -3411 3413 0
628 310 -323 3411 3413 0
628 -292 -293 3150 -3152 0
628 -292 293 3150 3152 0
628 292 -293 -3150 -3152 0
628 292 293 -3150 3152 0
628 -292 293 -3150 -3152 0
628 292 293 3150 -3152 0
628 -292 -293 -3150 3152 0
628 292 -293 3150 3152 0
628 -397 -398 3401 -3403 0
628 -397 398 3401 3403 0
628 397 -398 -3401 -3403 0
628 397 398 -3401 3403 0
628 -397 398 -3401 -3403 0
628 397 398 3401 -3403 0
628 -397 -398 -3401 3403 0
628 397 -398 3401 3403 0
628 276 -277 -278 -3156 0
628 276 -277 278 3156 0
628 -276 277 -278 -3156 0
628 -276 277 278 3156 0
628 -276 -277 278 -3156 0
628 276 277 278 -3156 0
628 -276 -277 -278 3156 0
628 276 277 -278 3156 0
628 -286 -288 3160 -3162 0
628 -286 288 3160 3162 0
628 286 -288 -3160 -3162 0
628 286 288 -3160 3162 0
628 -286 288 -3160 -3162 0
628 286 288 3160 -3162 0
628 -286 -288 -3160 3162 0
628 286 -288 3160 3162 0
628 -280 -281 3156 -3158 0
628 -280 281 3156 3158 0
628 280 -281 -3156 -3158 0
628 280 281 -3156 3158 0
628 -280 281 -3156 -3158 0
628 280 281 3156 -3158 0
628 -280 -281 -3156 3158 0
628 280 -281 3156 3158 0
628 -383 -420 812 -814 0
628 -383 420 812 814 0
628 383 -420 -812 -814 0
628 383 420 -812 814 0
628 -383 420 -812 -814 0
628 383 420 812 -814 0
628 -383 -420 -812 814 0
628 383 -420 812 814 0
628 -349 -350 3250 -3252 0
628 -349 350 3250 3252 0
628 349 -350 -3250 -3252 0
628 349 350 -3250 3252 0
628 -349 350 -3250 -3252 0
628 349 350 3250 -3252 0
628 -349 -350 -3250 3252 0
628 349 -350 3250 3252 0
628 -347 -348 3381 -3383 0
628 -347 348 3381 3383 0
628 347 -348 -3381 -3383 0
628 347 348 -3381 3383 0
628 -347 348 -3381 -3383 0
628 347 348 3381 -3383 0
628 -347 -348 -3381 3383 0
628 347 -348 3381 3383 0
628 257 -291 -326 -1427 0
628 257 -291 326 1427 0
628 -257 291 -326 -1427 0
628 -257 291 326 1427 0
628 -257 -291 326 -1427 0
628 257 291 326 -1427 0
628 -257 -291 -326 1427 0
628 257 291 -326 1427 0
628 -359 -399 1427 -1429 0
628 -359 399 1427 1429 0
628 359 -399 -1427 -1429 0
628 359 399 -1427 1429 0
628 -359 399 -1427 -1429 0
628 359 399 1427 -1429 0
628 -359 -399 -1427 1429 0
628 359 -399 1427 1429 0
628 -286 -290 3182 -3184 0
628 -286 290 3182 3184 0
628 286 -290 -3182 -3184 0
628 286 290 -3182 3184 0
628 -286 290 -3182 -3184 0
628 286 290 3182 -3184 0
628 -286 -290 -3182 3184 0
628 286 -290 3182 3184 0
628 -284 -286 3169 -3171 0
628 -284 286 3169 3171 0
628 284 -286 -3169 -3171 0
628 284 286 -3169 3171 0
628 -284 286 -3169 -3171 0
628 284 286 3169 -3171 0
628 -284 -286 -3169 3171 0
628 284 -286 3169 3171 0
628 -290 -291 3172 -3174 0
628 -290 291 3172 3174 0
628 290 -291 -3172 -3174 0
628 290 291 -3172 3174 0
628 -290 291 -3172 -3174 0
628 290 291 3172 -3174 0
628 -290 -291 -3172 3174 0
628 290 -291 3172 3174 0
628 6 -11 -15 -1623 0
628 6 -11 15 1623 0
628 -6 11 -15 -1623 0
628 -6 11 15 1623 0
628 -6 -11 15 -1623 0
628 6 11 15 -1623 0
628 -6 -11 -15 1623 0
628 6 11 -15 1623 0
628 -281 -283 3179 -3181 0
628 -281 283 3179 3181 0
628 281 -283 -3179 -3181 0
628 281 283 -3179 3181 0
628 -281 283 -3179 -3181 0
628 281 283 3179 -3181 0
628 -281 -283 -3179 3181 0
628 281 -283 3179 3181 0
628 275 -278 -279 -3178 0
628 275 -278 279 3178 0
628 -275 278 -279 -3178 0
628 -275 278 279 3178 0
628 -275 -278 279 -3178 0
628 275 278 279 -3178 0
628 -275 -278 -279 3178 0
628 275 278 -279 3178 0
628 -29 -188 1589 -1591 0
628 -29 188 1589 1591 0
628 29 -188 -1589 -1591 0
628 29 188 -1589 1591 0
628 -29 188 -1589 -1591 0
628 29 188 1589 -1591 0
628 -29 -188 -1589 1591 0
628 29 -188 1589 1591 0
628 -27 -34 1623 -1625 0
628 -27 34 1623 1625 0
628 27 -34 -1623 -1625 0
628 27 34 -1623 1625 0
628 -27 34 -1623 -1625 0
628 27 34 1623 -1625 0
628 -27 -34 -1623 1625 0
628 27 -34 1623 1625 0
628 -249 -251 3353 -3355 0
628 -249 251 3353 3355 0
628 249 -251 -3353 -3355 0
628 249 251 -3353 3355 0
628 -249 251 -3353 -3355 0
628 249 251 3353 -3355 0
628 -249 -251 -3353 3355 0
628 249 -251 3353 3355 0
628 -312 -313 3190 -3192 0
628 -312 313 3190 3192 0
628 312 -313 -3190 -3192 0
628 312 313 -3190 3192 0
628 -312 313 -3190 -3192 0
628 312 313 3190 -3192 0
628 -312 -313 -3190 3192 0
628 312 -313 3190 3192 0
628 309 -310 -311 -3190 0
628 309 -310 311 3190 0
628 -309 310 -311 -3190 0
628 -309 310 311 3190 0
628 -309 -310 311 -3190 0
628 309 310 311 -3190 0
628 -309 -310 -311 3190 0
628 309 310 -311 3190 0
628 -360 -362 3262 -3264 0
628 -360 362 3262 3264 0
628 360 -362 -3262 -3264 0
628 360 362 -3262 3264 0
628 -360 362 -3262 -3264 0
628 360 362 3262 -3264 0
628 -360 -362 -3262 3264 0
628 360 -362 3262 3264 0
628 -316 -317 3194 -3196 0
628 -316 317 3194 3196 0
628 316 -317 -3194 -3196 0
628 316 317 -3194 3196 0
628 -316 317 -3194 -3196 0
628 316 317 3194 -3196 0
628 -316 -317 -3194 3196 0
628 316 -317 3194 3196 0
628 -358 -359 3342 -3344 0
628 -358 359 3342 3344 0
628 358 -359 -3342 -3344 0
628 358 359 -3342 3344 0
628 -358 359 -3342 -3344 0
628 358 359 3342 -3344 0
628 -358 -359 -3342 3344 0
628 358 -359 3342 3344 0
628 239 -240 -241 -2854 0
628 239 -240 241 2854 0
628 -239 240 -241 -2854 0
628 -239 240 241 2854 0
628 -239 -240 241 -2854 0
628 239 240 241 -2854 0
628 -239 -240 -241 2854 0
628 239 240 -241 2854 0
628 -318 -319 3196 -3198 0
628 -318 319 3196 3198 0
628 318 -319 -3196 -3198 0
628 318 319 -3196 3198 0
628 -318 319 -3196 -3198 0
628 318 319 3196 -3198 0
628 -318 -319 -3196 3198 0
628 318 -319 3196 3198 0
628 -347 -349 3339 -3341 0
628 -347 349 3339 3341 0
628 347 -349 -3339 -3341 0
628 347 349 -3339 3341 0
628 -347 349 -3339 -3341 0
628 347 349 3339 -3341 0
628 -347 -349 -3339 3341 0
628 347 -349 3339 3341 0
628 -254 -255 3326 -3328 0
628 -254 255 3326 3328 0
628 254 -255 -3326 -3328 0
628 254 255 -3326 3328 0
628 -254 255 -3326 -3328 0
628 254 255 3326 -3328 0
628 -254 -255 -3326 3328 0
628 254 -255 3326 3328 0
628 -24 -31 1602 -1604 0
628 -24 31 1602 1604 0
628 24 -31 -1602 -1604 0
628 24 31 -1602 1604 0
628 -24 31 -1602 -1604 0
628 24 31 1602 -1604 0
628 -24 -31 -1602 1604 0
628 24 -31 1602 1604 0
628 309 -310 -311 -3204 0
628 309 -310 311 3204 0
628 -309 310 -311 -3204 0
628 -309 310 311 3204 0
628 -309 -310 311 -3204 0
628 309 310 311 -3204 0
628 -309 -310 -311 3204 0
628 309 310 -311 3204 0
628 3 -8 -19 -1602 0
628 3 -8 19 1602 0
628 -3 8 -19 -1602 0
628 -3 8 19 1602 0
628 -3 -8 19 -1602 0
628 3 8 19 -1602 0
628 -3 -8 -19 1602 0
628 3 8 -19 1602 0
628 -313 -314 3205 -3207 0
628 -313 314 3205 3207 0
628 313 -314 -3205 -3207 0
628 313 314 -3205 3207 0
628 -313 314 -3205 -3207 0
628 313 314 3205 -3207 0
628 -313 -314 -3205 3207 0
628 313 -314 3205 3207 0
628 -324 -325 3209 -3211 0
628 -324 325 3209 3211 0
628 324 -325 -3209 -3211 0
628 324 325 -3209 3211 0
628 -324 325 -3209 -3211 0
628 324 325 3209 -3211 0
628 -324 -325 -3209 3211 0
628 324 -325 3209 3211 0
628 -349 -350 3236 -3238 0
628 -349 350 3236 3238 0
628 349 -350 -3236 -3238 0
628 349 350 -3236 3238 0
628 -349 350 -3236 -3238 0
628 349 350 3236 -3238 0
628 -349 -350 -3236 3238 0
628 349 -350 3236 3238 0
628 8 -9 -10 -2620 0
628 8 -9 10 2620 0
628 -8 9 -10 -2620 0
628 -8 9 10 2620 0
628 -8 -9 10 -2620 0
628 8 9 10 -2620 0
628 -8 -9 -10 2620 0
628 8 9 -10 2620 0
628 -325 -327 3218 -3220 0
628 -325 327 3218 3220 0
628 325 -327 -3218 -3220 0
628 325 327 -3218 3220 0
628 -325 327 -3218 -3220 0
628 325 327 3218 -3220 0
628 -325 -327 -3218 3220 0
628 325 -327 3218 3220 0
628 5 -10 -21 -1616 0
628 5 -10 21 1616 0
628 -5 10 -21 -1616 0
628 -5 10 21 1616 0
628 -5 -10 21 -1616 0
628 5 10 21 -1616 0
628 -5 -10 -21 1616 0
628 5 10 -21 1616 0
628 -345 -382 804 -806 0
628 -345 382 804 806 0
628 345 -382 -804 -806 0
628 345 382 -804 806 0
628 -345 382 -804 -806 0
628 345 382 804 -806 0
628 -345 -382 -804 806 0
628 345 -382 804 806 0
628 -316 -318 3224 -3226 0
628 -316 318 3224 3226 0
628 316 -318 -3224 -3226 0
628 316 318 -3224 3226 0
628 -316 318 -3224 -3226 0
628 316 318 3224 -3226 0
628 -316 -318 -3224 3226 0
628 316 -318 3224 3226 0
628 -327 -328 3228 -3230 0
628 -327 328 3228 3230 0
628 327 -328 -3228 -3230 0
628 327 328 -3228 3230 0
628 -327 328 -3228 -3230 0
628 327 328 3228 -3230 0
628 -327 -328 -3228 3230 0
628 327 -328 3228 3230 0
628 -43 -45 2608 -2610 0
628 -43 45 2608 2610 0
628 43 -45 -2608 -2610 0
628 43 45 -2608 2610 0
628 -43 45 -2608 -2610 0
628 43 45 2608 -2610 0
628 -43 -45 -2608 2610 0
628 43 -45 2608 2610 0
628 -78 -79 2612 -2614 0
628 -78 79 2612 2614 0
628 78 -79 -2612 -2614 0
628 78 79 -2612 2614 0
628 -78 79 -2612 -2614 0
628 78 79 2612 -2614 0
628 -78 -79 -2612 2614 0
628 78 -79 2612 2614 0
628 -347 -348 3234 -3236 0
628 -347 348 3234 3236 0
628 347 -348 -3234 -3236 0
628 347 348 -3234 3236 0
628 -347 348 -3234 -3236 0
628 347 348 3234 -3236 0
628 -347 -348 -3234 3236 0
628 347 -348 3234 3236 0
628 -26 -33 1616 -1618 0
628 -26 33 1616 1618 0
628 26 -33 -1616 -1618 0
628 26 33 -1616 1618 0
628 -26 33 -1616 -1618 0
628 26 33 1616 -1618 0
628 -26 -33 -1616 1618 0
628 26 -33 1616 1618 0
628 -351 -352 3238 -3240 0
628 -351 352 3238 3240 0
628 351 -352 -3238 -3240 0
628 351 352 -3238 3240 0
628 -351 352 -3238 -3240 0
628 351 352 3238 -3240 0
628 -351 -352 -3238 3240 0
628 351 -352 3238 3240 0
628 -355 -356 3242 -3244 0
628 -355 356 3242 3244 0
628 355 -356 -3242 -3244 0
628 355 356 -3242 3244 0
628 -355 356 -3242 -3244 0
628 355 356 3242 -3244 0
628 -355 -356 -3242 3244 0
628 355 -356 3242 3244 0
628 -347 -348 3248 -3250 0
628 -347 348 3248 3250 0
628 347 -348 -3248 -3250 0
628 347 348 -3248 3250 0
628 -347 348 -3248 -3250 0
628 347 348 3248 -3250 0
628 -347 -348 -3248 3250 0
628 347 -348 3248 3250 0
628 -28 -35 1630 -1632 0
628 -28 35 1630 1632 0
628 28 -35 -1630 -1632 0
628 28 35 -1630 1632 0
628 -28 35 -1630 -1632 0
628 28 35 1630 -1632 0
628 -28 -35 -1630 1632 0
628 28 -35 1630 1632 0
628 -358 -359 3252 -3254 0
628 -358 359 3252 3254 0
628 358 -359 -3252 -3254 0
628 358 359 -3252 3254 0
628 -358 359 -3252 -3254 0
628 358 359 3252 -3254 0
628 -358 -359 -3252 3254 0
628 358 -359 3252 3254 0
628 -292 -293 3287 -3289 0
628 -292 293 3287 3289 0
628 292 -293 -3287 -3289 0
628 292 293 -3287 3289 0
628 -292 293 -3287 -3289 0
628 292 293 3287 -3289 0
628 -292 -293 -3287 3289 0
628 292 -293 3287 3289 0
628 344 -345 -346 -3234 0
628 344 -345 346 3234 0
628 -344 345 -346 -3234 0
628 -344 345 346 3234 0
628 -344 -345 346 -3234 0
628 344 345 346 -3234 0
628 -344 -345 -346 3234 0
628 344 345 -346 3234 0
628 -362 -363 3256 -3258 0
628 -362 363 3256 3258 0
628 362 -363 -3256 -3258 0
628 362 363 -3256 3258 0
628 -362 363 -3256 -3258 0
628 362 363 3256 -3258 0
628 -362 -363 -3256 3258 0
628 362 -363 3256 3258 0
628 240 -274 -309 -1308 0
628 240 -274 309 1308 0
628 -240 274 -309 -1308 0
628 -240 274 309 1308 0
628 -240 -274 309 -1308 0
628 240 274 309 -1308 0
628 -240 -274 -309 1308 0
628 240 274 -309 1308 0
628 -381 -462 1302 -1304 0
628 -381 462 1302 1304 0
628 381 -462 -1302 -1304 0
628 381 462 -1302 1304 0
628 -381 462 -1302 -1304 0
628 381 462 1302 -1304 0
628 -381 -462 -1302 1304 0
628 381 -462 1302 1304 0
628 345 -347 -348 -3268 0
628 345 -347 348 3268 0
628 -345 347 -348 -3268 0
628 -345 347 348 3268 0
628 -345 -347 348 -3268 0
628 345 347 348 -3268 0
628 -345 -347 -348 3268 0
628 345 347 -348 3268 0
628 -275 -277 3279 -3281 0
628 -275 277 3279 3281 0
628 275 -277 -3279 -3281 0
628 275 277 -3279 3281 0
628 -275 277 -3279 -3281 0
628 275 277 3279 -3281 0
628 -275 -277 -3279 3281 0
628 275 -277 3279 3281 0
628 10 -12 -13 -2608 0
628 10 -12 13 2608 0
628 -10 12 -13 -2608 0
628 -10 12 13 2608 0
628 -10 -12 13 -2608 0
628 10 12 13 -2608 0
628 -10 -12 -13 2608 0
628 10 12 -13 2608 0
628 -281 -283 3283 -3285 0
628 -281 283 3283 3285 0
628 281 -283 -3283 -3285 0
628 281 283 -3283 3285 0
628 -281 283 -3283 -3285 0
628 281 283 3283 -3285 0
628 -281 -283 -3283 3285 0
628 281 -283 3283 3285 0
628 -316 -319 3292 -3294 0
628 -316 319 3292 3294 0
628 316 -319 -3292 -3294 0
628 316 319 -3292 3294 0
628 -316 319 -3292 -3294 0
628 316 319 3292 -3294 0
628 -316 -319 -3292 3294 0
628 316 -319 3292 3294 0
628 -321 -326 3226 -3228 0
628 -321 326 3226 3228 0
628 321 -326 -3226 -3228 0
628 321 326 -3226 3228 0
628 -321 326 -3226 -3228 0
628 321 326 3226 -3228 0
628 -321 -326 -3226 3228 0
628 321 -326 3226 3228 0
628 244 -276 -313 -825 0
628 244 -276 313 825 0
628 -244 276 -313 -825 0
628 -244 276 313 825 0
628 -244 -276 313 -825 0
628 244 276 313 -825 0
628 -244 -276 -313 825 0
628 244 276 -313 825 0
628 -361 -362 3309 -3311 0
628 -361 362 3309 3311 0
628 361 -362 -3309 -3311 0
628 361 362 -3309 3311 0
628 -361 362 -3309 -3311 0
628 361 362 3309 -3311 0
628 -361 -362 -3309 3311 0
628 361 -362 3309 3311 0
628 -345 -347 3299 -3301 0
628 -345 347 3299 3301 0
628 345 -347 -3299 -3301 0
628 345 347 -3299 3301 0
628 -345 347 -3299 -3301 0
628 345 347 3299 -3301 0
628 -345 -347 -3299 3301 0
628 345 -347 3299 3301 0
628 -351 -352 3303 -3305 0
628 -351 352 3303 3305 0
628 351 -352 -3303 -3305 0
628 351 352 -3303 3305 0
628 -351 352 -3303 -3305 0
628 351 352 3303 -3305 0
628 -351 -352 -3303 3305 0
628 351 -352 3303 3305 0
628 -359 -360 3307 -3309 0
628 -359 360 3307 3309 0
628 359 -360 -3307 -3309 0
628 359 360 -3307 3309 0
628 -359 360 -3307 -3309 0
628 359 360 3307 -3309 0
628 -359 -360 -3307 3309 0
628 359 -360 3307 3309 0
628 -48 -81 2600 -2602 0
628 -48 81 2600 2602 0
628 48 -81 -2600 -2602 0
628 48 81 -2600 2602 0
628 -48 81 -2600 -2602 0
628 48 81 2600 -2602 0
628 -48 -81 -2600 2602 0
628 48 -81 2600 2602 0
628 -393 -395 3318 -3320 0
628 -393 395 3318 3320 0
628 393 -395 -3318 -3320 0
628 393 395 -3318 3320 0
628 -393 395 -3318 -3320 0
628 393 395 3318 -3320 0
628 -393 -395 -3318 3320 0
628 393 -395 3318 3320 0
628 310 -312 -313 -3224 0
628 310 -312 313 3224 0
628 -310 312 -313 -3224 0
628 -310 312 313 3224 0
628 -310 -312 313 -3224 0
628 310 312 313 -3224 0
628 -310 -312 -313 3224 0
628 310 312 -313 3224 0
628 -384 -385 3395 -3397 0
628 -384 385 3395 3397 0
628 384 -385 -3395 -3397 0
628 384 385 -3395 3397 0
628 -384 385 -3395 -3397 0
628 384 385 3395 -3397 0
628 -384 -385 -3395 3397 0
628 384 -385 3395 3397 0
628 -68 -178 1694 -1696 0
628 -68 178 1694 1696 0
628 68 -178 -1694 -1696 0
628 68 178 -1694 1696 0
628 -68 178 -1694 -1696 0
628 68 178 1694 -1696 0
628 -68 -178 -1694 1696 0
628 68 -178 1694 1696 0
628 -289 -292 3331 -3333 0
628 -289 292 3331 3333 0
628 289 -292 -3331 -3333 0
628 289 292 -3331 3333 0
628 -289 292 -3331 -3333 0
628 289 292 3331 -3333 0
628 -289 -292 -3331 3333 0
628 289 -292 3331 3333 0
628 -323 -327 3335 -3337 0
628 -323 327 3335 3337 0
628 323 -327 -3335 -3337 0
628 323 327 -3335 3337 0
628 -323 327 -3335 -3337 0
628 323 327 3335 -3337 0
628 -323 -327 -3335 3337 0
628 323 -327 3335 3337 0
628 -30 -189 1596 -1598 0
628 -30 189 1596 1598 0
628 30 -189 -1596 -1598 0
628 30 189 -1596 1598 0
628 -30 189 -1596 -1598 0
628 30 189 1596 -1598 0
628 -30 -189 -1596 1598 0
628 30 -189 1596 1598 0
628 -258 -275 3358 -3360 0
628 -258 275 3358 3360 0
628 258 -275 -3358 -3360 0
628 258 275 -3358 3360 0
628 -258 275 -3358 -3360 0
628 258 275 3358 -3360 0
628 -258 -275 -3358 3360 0
628 258 -275 3358 3360 0
628 -395 -421 3348 -3350 0
628 -395 421 3348 3350 0
628 395 -421 -3348 -3350 0
628 395 421 -3348 3350 0
628 -395 421 -3348 -3350 0
628 395 421 3348 -3350 0
628 -395 -421 -3348 3350 0
628 395 -421 3348 3350 0
628 -74 -75 2592 -2594 0
628 -74 75 2592 2594 0
628 74 -75 -2592 -2594 0
628 74 75 -2592 2594 0
628 -74 75 -2592 -2594 0
628 74 75 2592 -2594 0
628 -74 -75 -2592 2594 0
628 74 -75 2592 2594 0
628 -291 -292 3366 -3368 0
628 -291 292 3366 3368 0
628 291 -292 -3366 -3368 0
628 291 292 -3366 3368 0
628 -291 292 -3366 -3368 0
628 291 292 3366 -3368 0
628 -291 -292 -3366 3368 0
628 291 -292 3366 3368 0
628 -318 -320 3374 -3376 0
628 -318 320 3374 3376 0
628 318 -320 -3374 -3376 0
628 318 320 -3374 3376 0
628 -318 320 -3374 -3376 0
628 318 320 3374 -3376 0
628 -318 -320 -3374 3376 0
628 318 -320 3374 3376 0
628 -382 -383 3393 -3395 0
628 -382 383 3393 3395 0
628 382 -383 -3393 -3395 0
628 382 383 -3393 3395 0
628 -382 383 -3393 -3395 0
628 382 383 3393 -3395 0
628 -382 -383 -3393 3395 0
628 382 -383 3393 3395 0
628 -349 -350 3383 -3385 0
628 -349 350 3383 3385 0
628 349 -350 -3383 -3385 0
628 349 350 -3383 3385 0
628 -349 350 -3383 -3385 0
628 349 350 3383 -3385 0
628 -349 -350 -3383 3385 0
628 349 -350 3383 3385 0
628 -359 -361 3387 -3389 0
628 -359 361 3387 3389 0
628 359 -361 -3387 -3389 0
628 359 361 -3387 3389 0
628 -359 361 -3387 -3389 0
628 359 361 3387 -3389 0
628 -359 -361 -3387 3389 0
628 359 -361 3387 3389 0
628 -380 -381 3391 -3393 0
628 -380 381 3391 3393 0
628 380 -381 -3391 -3393 0
628 380 381 -3391 3393 0
628 -380 381 -3391 -3393 0
628 380 381 3391 -3393 0
628 -380 -381 -3391 3393 0
628 380 -381 3391 3393 0
628 -388 -393 3397 -3399 0
628 -388 393 3397 3399 0
628 388 -393 -3397 -3399 0
628 388 393 -3397 3399 0
628 -388 393 -3397 -3399 0
628 388 393 3397 -3399 0
628 -388 -393 -3397 3399 0
628 388 -393 3397 3399 0
628 241 -254 -276 -3408 0
628 241 -254 276 3408 0
628 -241 254 -276 -3408 0
628 -241 254 276 3408 0
628 -241 -254 276 -3408 0
628 241 254 276 -3408 0
628 -241 -254 -276 3408 0
628 241 254 -276 3408 0
628 -349 -350 3415 -3417 0
628 -349 350 3415 3417 0
628 349 -350 -3415 -3417 0
628 349 350 -3415 3417 0
628 -349 350 -3415 -3417 0
628 349 350 3415 -3417 0
628 -349 -350 -3415 3417 0
628 349 -350 3415 3417 0
628 -398 -421 3428 -3430 0
628 -398 421 3428 3430 0
628 398 -421 -3428 -3430 0
628 398 421 -3428 3430 0
628 -398 421 -3428 -3430 0
628 398 421 3428 -3430 0
628 -398 -421 -3428 3430 0
628 398 -421 3428 3430 0
628 -384 -385 3423 -3425 0
628 -384 385 3423 3425 0
628 384 -385 -3423 -3425 0
628 384 385 -3423 3425 0
628 -384 385 -3423 -3425 0
628 384 385 3423 -3425 0
628 -384 -385 -3423 3425 0
628 384 -385 3423 3425 0
628 -326 -327 3211 -3213 0
628 -326 327 3211 3213 0
628 326 -327 -3211 -3213 0
628 326 327 -3211 3213 0
628 -326 327 -3211 -3213 0
628 326 327 3211 -3213 0
628 -326 -327 -3211 3213 0
628 326 -327 3211 3213 0
628 314 -316 -323 -3218 0
628 314 -316 323 3218 0
628 -314 316 -323 -3218 0
628 -314 316 323 3218 0
628 -314 -316 323 -3218 0
628 314 316 323 -3218 0
628 -314 -316 -323 3218 0
628 314 316 -323 3218 0
628 4 -9 -20 -1609 0
628 4 -9 20 1609 0
628 -4 9 -20 -1609 0
628 -4 9 20 1609 0
628 -4 -9 20 -1609 0
628 4 9 20 -1609 0
628 -4 -9 -20 1609 0
628 4 9 -20 1609 0
628 241 -280 -310 -804 0
628 241 -280 310 804 0
628 -241 280 -310 -804 0
628 -241 280 310 804 0
628 -241 -280 310 -804 0
628 241 280 310 -804 0
628 -241 -280 -310 804 0
628 241 280 -310 804 0
628 2 -5 -6 -2586 0
628 2 -5 6 2586 0
628 -2 5 -6 -2586 0
628 -2 5 6 2586 0
628 -2 -5 6 -2586 0
628 2 5 6 -2586 0
628 -2 -5 -6 2586 0
628 2 5 -6 2586 0
628 37 -48 -50 -1728 0
628 37 -48 50 1728 0
628 -37 48 -50 -1728 0
628 -37 48 50 1728 0
628 -37 -48 50 -1728 0
628 37 48 50 -1728 0
628 -37 -48 -50 1728 0
628 37 48 -50 1728 0
628 -315 -323 3207 -3209 0
628 -315 323 3207 3209 0
628 315 -323 -3207 -3209 0
628 315 323 -3207 3209 0
628 -315 323 -3207 -3209 0
628 315 323 3207 -3209 0
628 -315 -323 -3207 3209 0
628 315 -323 3207 3209 0
628 -65 -182 1722 -1724 0
628 -65 182 1722 1724 0
628 65 -182 -1722 -1724 0
628 65 182 -1722 1724 0
628 -65 182 -1722 -1724 0
628 65 182 1722 -1724 0
628 -65 -182 -1722 1724 0
628 65 -182 1722 1724 0
628 -66 -176 1729 -1731 0
628 -66 176 1729 1731 0
628 66 -176 -1729 -1731 0
628 66 176 -1729 1731 0
628 -66 176 -1729 -1731 0
628 66 176 1729 -1731 0
628 -66 -176 -1729 1731 0
628 66 -176 1729 1731 0
628 -58 -65 1742 -1744 0
628 -58 65 1742 1744 0
628 58 -65 -1742 -1744 0
628 58 65 -1742 1744 0
628 -58 65 -1742 -1744 0
628 58 65 1742 -1744 0
628 -58 -65 -1742 1744 0
628 58 -65 1742 1744 0
628 251 -283 -320 -874 0
628 251 -283 320 874 0
628 -251 283 -320 -874 0
628 -251 283 320 874 0
628 -251 -283 320 -874 0
628 251 283 320 -874 0
628 -251 -283 -320 874 0
628 251 283 -320 874 0
628 -66 -186 1750 -1752 0
628 -66 186 1750 1752 0
628 66 -186 -1750 -1752 0
628 66 186 -1750 1752 0
628 -66 186 -1750 -1752 0
628 66 186 1750 -1752 0
628 -66 -186 -1750 1752 0
628 66 -186 1750 1752 0
628 39 -44 -55 -1756 0
628 39 -44 55 1756 0
628 -39 44 -55 -1756 0
628 -39 44 55 1756 0
628 -39 -44 55 -1756 0
628 39 44 55 -1756 0
628 -39 -44 -55 1756 0
628 39 44 -55 1756 0
628 -72 -73 2570 -2572 0
628 -72 73 2570 2572 0
628 72 -73 -2570 -2572 0
628 72 73 -2570 2572 0
628 -72 73 -2570 -2572 0
628 72 73 2570 -2572 0
628 -72 -73 -2570 2572 0
628 72 -73 2570 2572 0
628 252 -284 -321 -881 0
628 252 -284 321 881 0
628 -252 284 -321 -881 0
628 -252 284 321 881 0
628 -252 -284 321 -881 0
628 252 284 321 -881 0
628 -252 -284 -321 881 0
628 252 284 -321 881 0
628 -356 -386 881 -883 0
628 -356 386 881 883 0
628 356 -386 -881 -883 0
628 356 386 -881 883 0
628 -356 386 -881 -883 0
628 356 386 881 -883 0
628 -356 -386 -881 883 0
628 356 -386 881 883 0
628 -314 -315 3192 -3194 0
628 -314 315 3192 3194 0
628 314 -315 -3192 -3194 0
628 314 315 -3192 3194 0
628 -314 315 -3192 -3194 0
628 314 315 3192 -3194 0
628 -314 -315 -3192 3194 0
628 314 -315 3192 3194 0
628 41 -46 -50 -1770 0
628 41 -46 50 1770 0
628 -41 46 -50 -1770 0
628 -41 46 50 1770 0
628 -41 -46 50 -1770 0
628 41 46 50 -1770 0
628 -41 -46 -50 1770 0
628 41 46 -50 1770 0
628 246 -285 -322 -888 0
628 246 -285 322 888 0
628 -246 285 -322 -888 0
628 -246 285 322 888 0
628 -246 -285 322 -888 0
628 246 285 322 -888 0
628 -246 -285 -322 888 0
628 246 285 -322 888 0
628 -51 -63 1776 -1778 0
628 -51 63 1776 1778 0
628 51 -63 -1776 -1778 0
628 51 63 -1776 1778 0
628 -51 63 -1776 -1778 0
628 51 63 1776 -1778 0
628 -51 -63 -1776 1778 0
628 51 -63 1776 1778 0
628 -70 -183 1778 -1780 0
628 -70 183 1778 1780 0
628 70 -183 -1778 -1780 0
628 70 183 -1778 1780 0
628 -70 183 -1778 -1780 0
628 70 183 1778 -1780 0
628 -70 -183 -1778 1780 0
628 70 -183 1778 1780 0
628 42 -48 -55 -1784 0
628 42 -48 55 1784 0
628 -42 48 -55 -1784 0
628 -42 48 55 1784 0
628 -42 -48 55 -1784 0
628 42 48 55 -1784 0
628 -42 -48 -55 1784 0
628 42 48 -55 1784 0
628 -320 -321 3198 -3200 0
628 -320 321 3198 3200 0
628 320 -321 -3198 -3200 0
628 320 321 -3198 3200 0
628 -320 321 -3198 -3200 0
628 320 321 3198 -3200 0
628 -320 -321 -3198 3200 0
628 320 -321 3198 3200 0
628 -66 -192 1792 -1794 0
628 -66 192 1792 1794 0
628 66 -192 -1792 -1794 0
628 66 192 -1792 1794 0
628 -66 192 -1792 -1794 0
628 66 192 1792 -1794 0
628 -66 -192 -1792 1794 0
628 66 -192 1792 1794 0
628 -388 -414 896 -898 0
628 -388 414 896 898 0
628 388 -414 -896 -898 0
628 388 414 -896 898 0
628 -388 414 -896 -898 0
628 388 414 896 -898 0
628 -388 -414 -896 898 0
628 388 -414 896 898 0
628 255 -294 -324 -902 0
628 255 -294 324 902 0
628 -255 294 -324 -902 0
628 -255 294 324 902 0
628 -255 -294 324 -902 0
628 255 294 324 -902 0
628 -255 -294 -324 902 0
628 255 294 -324 902 0
628 -67 -193 1799 -1801 0
628 -67 193 1799 1801 0
628 67 -193 -1799 -1801 0
628 67 193 -1799 1801 0
628 -67 193 -1799 -1801 0
628 67 193 1799 -1801 0
628 -67 -193 -1799 1801 0
628 67 -193 1799 1801 0
628 -359 -396 902 -904 0
628 -359 396 902 904 0
628 359 -396 -902 -904 0
628 359 396 -902 904 0
628 -359 396 -902 -904 0
628 359 396 902 -904 0
628 -359 -396 -902 904 0
628 359 -396 902 904 0
628 -18 -23 1594 -1596 0
628 -18 23 1594 1596 0
628 18 -23 -1594 -1596 0
628 18 23 -1594 1596 0
628 -18 23 -1594 -1596 0
628 18 23 1594 -1596 0
628 -18 -23 -1594 1596 0
628 18 -23 1594 1596 0
628 -69 -195 1813 -1815 0
628 -69 195 1813 1815 0
628 69 -195 -1813 -1815 0
628 69 195 -1813 1815 0
628 -69 195 -1813 -1815 0
628 69 195 1813 -1815 0
628 -69 -195 -1813 1815 0
628 69 -195 1813 1815 0
628 -397 -414 910 -912 0
628 -397 414 910 912 0
628 397 -414 -910 -912 0
628 397 414 -910 912 0
628 -397 414 -910 -912 0
628 397 414 910 -912 0
628 -397 -414 -910 912 0
628 397 -414 910 912 0
628 -59 -64 1826 -1828 0
628 -59 64 1826 1828 0
628 59 -64 -1826 -1828 0
628 59 64 -1826 1828 0
628 -59 64 -1826 -1828 0
628 59 64 1826 -1828 0
628 -59 -64 -1826 1828 0
628 59 -64 1826 1828 0
628 41 -47 -54 -1826 0
628 41 -47 54 1826 0
628 -41 47 -54 -1826 0
628 -41 47 54 1826 0
628 -41 -47 54 -1826 0
628 41 47 54 -1826 0
628 -41 -47 -54 1826 0
628 41 47 -54 1826 0
628 257 -289 -326 -916 0
628 257 -289 326 916 0
628 -257 289 -326 -916 0
628 -257 289 326 916 0
628 -257 -289 326 -916 0
628 257 289 326 -916 0
628 -257 -289 -326 916 0
628 257 289 -326 916 0
628 -93 -102 1833 -1835 0
628 -93 102 1833 1835 0
628 93 -102 -1833 -1835 0
628 93 102 -1833 1835 0
628 -93 102 -1833 -1835 0
628 93 102 1833 -1835 0
628 -93 -102 -1833 1835 0
628 93 -102 1833 1835 0
628 -291 -292 3184 -3186 0
628 -291 292 3184 3186 0
628 291 -292 -3184 -3186 0
628 291 292 -3184 3186 0
628 -291 292 -3184 -3186 0
628 291 292 3184 -3186 0
628 -291 -292 -3184 3186 0
628 291 -292 3184 3186 0
628 272 -305 -337 -1280 0
628 272 -305 337 1280 0
628 -272 305 -337 -1280 0
628 -272 305 337 1280 0
628 -272 -305 337 -1280 0
628 272 305 337 -1280 0
628 -272 -305 -337 1280 0
628 272 305 -337 1280 0
628 -103 -176 1841 -1843 0
628 -103 176 1841 1843 0
628 103 -176 -1841 -1843 0
628 103 176 -1841 1843 0
628 -103 176 -1841 -1843 0
628 103 176 1841 -1843 0
628 -103 -176 -1841 1843 0
628 103 -176 1841 1843 0
628 258 -290 -327 -923 0
628 258 -290 327 923 0
628 -258 290 -327 -923 0
628 -258 290 327 923 0
628 -258 -290 327 -923 0
628 258 290 327 -923 0
628 -258 -290 -327 923 0
628 258 290 -327 923 0
628 -104 -177 1848 -1850 0
628 -104 177 1848 1850 0
628 104 -177 -1848 -1850 0
628 104 177 -1848 1850 0
628 -104 177 -1848 -1850 0
628 104 177 1848 -1850 0
628 -104 -177 -1848 1850 0
628 104 -177 1848 1850 0
628 -17 -22 1587 -1589 0
628 -17 22 1587 1589 0
628 17 -22 -1587 -1589 0
628 17 22 -1587 1589 0
628 -17 22 -1587 -1589 0
628 17 22 1587 -1589 0
628 -17 -22 -1587 1589 0
628 17 -22 1587 1589 0
628 259 -291 -328 -930 0
628 259 -291 328 930 0
628 -259 291 -328 -930 0
628 -259 291 328 930 0
628 -259 -291 328 -930 0
628 259 291 328 -930 0
628 -259 -291 -328 930 0
628 259 291 -328 930 0
628 -105 -178 1855 -1857 0
628 -105 178 1855 1857 0
628 105 -178 -1855 -1857 0
628 105 178 -1855 1857 0
628 -105 178 -1855 -1857 0
628 105 178 1855 -1857 0
628 -105 -178 -1855 1857 0
628 105 -178 1855 1857 0
628 -31 -180 1582 -1584 0
628 -31 180 1582 1584 0
628 31 -180 -1582 -1584 0
628 31 180 -1582 1584 0
628 -31 180 -1582 -1584 0
628 31 180 1582 -1584 0
628 -31 -180 -1582 1584 0
628 31 -180 1582 1584 0
628 -99 -179 1862 -1864 0
628 -99 179 1862 1864 0
628 99 -179 -1862 -1864 0
628 99 179 -1862 1864 0
628 -99 179 -1862 -1864 0
628 99 179 1862 -1864 0
628 -99 -179 -1862 1864 0
628 99 -179 1862 1864 0
628 71 -82 -91 -1868 0
628 71 -82 91 1868 0
628 -71 82 -91 -1868 0
628 -71 82 91 1868 0
628 -71 -82 91 -1868 0
628 71 82 91 -1868 0
628 -71 -82 -91 1868 0
628 71 82 -91 1868 0
628 253 -292 -329 -937 0
628 253 -292 329 937 0
628 -253 292 -329 -937 0
628 -253 292 329 937 0
628 -253 -292 329 -937 0
628 253 292 329 -937 0
628 -253 -292 -329 937 0
628 253 292 -329 937 0
628 -85 -92 1874 -1876 0
628 -85 92 1874 1876 0
628 85 -92 -1874 -1876 0
628 85 92 -1874 1876 0
628 -85 92 -1874 -1876 0
628 85 92 1874 -1876 0
628 -85 -92 -1874 1876 0
628 85 -92 1874 1876 0
628 -364 -394 937 -939 0
628 -364 394 937 939 0
628 364 -394 -937 -939 0
628 364 394 -937 939 0
628 -364 394 -937 -939 0
628 364 394 937 -939 0
628 -364 -394 -937 939 0
628 364 -394 937 939 0
628 254 -293 -323 -944 0
628 254 -293 323 944 0
628 -254 293 -323 -944 0
628 -254 293 323 944 0
628 -254 -293 323 -944 0
628 254 293 323 -944 0
628 -254 -293 -323 944 0
628 254 293 -323 944 0
628 -88 -93 1888 -1890 0
628 -88 93 1888 1890 0
628 88 -93 -1888 -1890 0
628 88 93 -1888 1890 0
628 -88 93 -1888 -1890 0
628 88 93 1888 -1890 0
628 -88 -93 -1888 1890 0
628 88 -93 1888 1890 0
628 -100 -183 1890 -1892 0
628 -100 183 1890 1892 0
628 100 -183 -1890 -1892 0
628 100 183 -1890 1892 0
628 -100 183 -1890 -1892 0
628 100 183 1890 -1892 0
628 -100 -183 -1890 1892 0
628 100 -183 1890 1892 0
628 -90 -95 1902 -1904 0
628 -90 95 1902 1904 0
628 90 -95 -1902 -1904 0
628 90 95 -1902 1904 0
628 -90 95 -1902 -1904 0
628 90 95 1902 -1904 0
628 -90 -95 -1902 1904 0
628 90 -95 1902 1904 0
628 -94 -101 1896 -1898 0
628 -94 101 1896 1898 0
628 94 -101 -1896 -1898 0
628 94 101 -1896 1898 0
628 -94 101 -1896 -1898 0
628 94 101 1896 -1898 0
628 -94 -101 -1896 1898 0
628 94 -101 1896 1898 0
628 73 -78 -89 -1896 0
628 73 -78 89 1896 0
628 -73 78 -89 -1896 0
628 -73 78 89 1896 0
628 -73 -78 89 -1896 0
628 73 78 89 -1896 0
628 -73 -78 -89 1896 0
628 73 78 -89 1896 0
628 -72 -73 2544 -2546 0
628 -72 73 2544 2546 0
628 72 -73 -2544 -2546 0
628 72 73 -2544 2546 0
628 -72 73 -2544 -2546 0
628 72 73 2544 -2546 0
628 -72 -73 -2544 2546 0
628 72 -73 2544 2546 0
628 -403 -420 952 -954 0
628 -403 420 952 954 0
628 403 -420 -952 -954 0
628 403 420 -952 954 0
628 -403 420 -952 -954 0
628 403 420 952 -954 0
628 -403 -420 -952 954 0
628 403 -420 952 954 0
628 -96 -103 1910 -1912 0
628 -96 103 1910 1912 0
628 96 -103 -1910 -1912 0
628 96 103 -1910 1912 0
628 -96 103 -1910 -1912 0
628 96 103 1910 -1912 0
628 -96 -103 -1910 1912 0
628 96 -103 1910 1912 0
628 271 -304 -343 -1273 0
628 271 -304 343 1273 0
628 -271 304 -343 -1273 0
628 -271 304 343 1273 0
628 -271 -304 343 -1273 0
628 271 304 343 -1273 0
628 -271 -304 -343 1273 0
628 271 304 -343 1273 0
628 263 -295 -332 -958 0
628 263 -295 332 958 0
628 -263 295 -332 -958 0
628 -263 295 332 958 0
628 -263 -295 332 -958 0
628 263 295 332 -958 0
628 -263 -295 -332 958 0
628 263 295 -332 958 0
628 76 -81 -85 -1917 0
628 76 -81 85 1917 0
628 -76 81 -85 -1917 0
628 -76 81 85 1917 0
628 -76 -81 85 -1917 0
628 76 81 85 -1917 0
628 -76 -81 -85 1917 0
628 76 81 -85 1917 0
628 -3 -5 2539 -2541 0
628 -3 5 2539 2541 0
628 3 -5 -2539 -2541 0
628 3 5 -2539 2541 0
628 -3 5 -2539 -2541 0
628 3 5 2539 -2541 0
628 -3 -5 -2539 2541 0
628 3 -5 2539 2541 0
628 256 -290 -325 -1420 0
628 256 -290 325 1420 0
628 -256 290 -325 -1420 0
628 -256 290 325 1420 0
628 -256 -290 325 -1420 0
628 256 290 325 -1420 0
628 -256 -290 -325 1420 0
628 256 290 -325 1420 0
628 -105 -188 1925 -1927 0
628 -105 188 1925 1927 0
628 105 -188 -1925 -1927 0
628 105 188 -1925 1927 0
628 -105 188 -1925 -1927 0
628 105 188 1925 -1927 0
628 -105 -188 -1925 1927 0
628 105 -188 1925 1927 0
628 -368 -405 965 -967 0
628 -368 405 965 967 0
628 368 -405 -965 -967 0
628 368 405 -965 967 0
628 -368 405 -965 -967 0
628 368 405 965 -967 0
628 -368 -405 -965 967 0
628 368 -405 965 967 0
628 -289 -290 3162 -3164 0
628 -289 290 3162 3164 0
628 289 -290 -3162 -3164 0
628 289 290 -3162 3164 0
628 -289 290 -3162 -3164 0
628 289 290 3162 -3164 0
628 -289 -290 -3162 3164 0
628 289 -290 3162 3164 0
628 -96 -101 1938 -1940 0
628 -96 101 1938 1940 0
628 96 -101 -1938 -1940 0
628 96 101 -1938 1940 0
628 -96 101 -1938 -1940 0
628 96 101 1938 -1940 0
628 -96 -101 -1938 1940 0
628 96 -101 1938 1940 0
628 -35 -72 2836 -2838 0
628 -35 72 2836 2838 0
628 35 -72 -2836 -2838 0
628 35 72 -2836 2838 0
628 -35 72 -2836 -2838 0
628 35 72 2836 -2838 0
628 -35 -72 -2836 2838 0
628 35 -72 2836 2838 0
628 -85 -92 2840 -2842 0
628 -85 92 2840 2842 0
628 85 -92 -2840 -2842 0
628 85 92 -2840 2842 0
628 -85 92 -2840 -2842 0
628 85 92 2840 -2842 0
628 -85 -92 -2840 2842 0
628 85 -92 2840 2842 0
628 -102 -191 1946 -1948 0
628 -102 191 1946 1948 0
628 102 -191 -1946 -1948 0
628 102 191 -1946 1948 0
628 -102 191 -1946 -1948 0
628 102 191 1946 -1948 0
628 -102 -191 -1946 1948 0
628 102 -191 1946 1948 0
628 -406 -416 973 -975 0
628 -406 416 973 975 0
628 406 -416 -973 -975 0
628 406 416 -973 975 0
628 -406 416 -973 -975 0
628 406 416 973 -975 0
628 -406 -416 -973 975 0
628 406 -416 973 975 0
628 -397 -458 1414 -1416 0
628 -397 458 1414 1416 0
628 397 -458 -1414 -1416 0
628 397 458 -1414 1416 0
628 -397 458 -1414 -1416 0
628 397 458 1414 -1416 0
628 -397 -458 -1414 1416 0
628 397 -458 1414 1416 0
628 -28 -30 2832 -2834 0
628 -28 30 2832 2834 0
628 28 -30 -2832 -2834 0
628 28 30 -2832 2834 0
628 -28 30 -2832 -2834 0
628 28 30 2832 -2834 0
628 -28 -30 -2832 2834 0
628 28 -30 2832 2834 0
628 -282 -284 3158 -3160 0
628 -282 284 3158 3160 0
628 282 -284 -3158 -3160 0
628 282 284 -3158 3160 0
628 -282 284 -3158 -3160 0
628 282 284 3158 -3160 0
628 -282 -284 -3158 3160 0
628 282 -284 3158 3160 0
628 -400 -417 980 -982 0
628 -400 417 980 982 0
628 400 -417 -980 -982 0
628 400 417 -980 982 0
628 -400 417 -980 -982 0
628 400 417 980 -982 0
628 -400 -417 -980 982 0
628 400 -417 980 982 0
628 260 -299 -336 -986 0
628 260 -299 336 986 0
628 -260 299 -336 -986 0
628 -260 299 336 986 0
628 -260 -299 336 -986 0
628 260 299 336 -986 0
628 -260 -299 -336 986 0
628 260 299 -336 986 0
628 76 -82 -89 -1973 0
628 76 -82 89 1973 0
628 -76 82 -89 -1973 0
628 -76 82 89 1973 0
628 -76 -82 89 -1973 0
628 76 82 89 -1973 0
628 -76 -82 -89 1973 0
628 76 82 -89 1973 0
628 108 -119 -121 -1980 0
628 108 -119 121 1980 0
628 -108 119 -121 -1980 0
628 -108 119 121 1980 0
628 -108 -119 121 -1980 0
628 108 119 121 -1980 0
628 -108 -119 -121 1980 0
628 108 119 -121 1980 0
628 -41 -74 2520 -2522 0
628 -41 74 2520 2522 0
628 41 -74 -2520 -2522 0
628 41 74 -2520 2522 0
628 -41 74 -2520 -2522 0
628 41 74 2520 -2522 0
628 -41 -74 -2520 2522 0
628 41 -74 2520 2522 0
628 -330 -365 992 -994 0
628 -330 365 992 994 0
628 330 -365 -992 -994 0
628 330 365 -992 994 0
628 -330 365 -992 -994 0
628 330 365 992 -994 0
628 -330 -365 -992 994 0
628 330 -365 992 994 0
628 109 -113 -122 -1987 0
628 109 -113 122 1987 0
628 -109 113 -122 -1987 0
628 -109 113 122 1987 0
628 -109 -113 122 -1987 0
628 109 113 122 -1987 0
628 -109 -113 -122 1987 0
628 109 113 -122 1987 0
628 -130 -139 1994 -1996 0
628 -130 139 1994 1996 0
628 130 -139 -1994 -1996 0
628 130 139 -1994 1996 0
628 -130 139 -1994 -1996 0
628 130 139 1994 -1996 0
628 -130 -139 -1994 1996 0
628 130 -139 1994 1996 0
628 1 -12 -21 -1574 0
628 1 -12 21 1574 0
628 -1 12 -21 -1574 0
628 -1 12 21 1574 0
628 -1 -12 21 -1574 0
628 1 12 21 -1574 0
628 -1 -12 -21 1574 0
628 1 12 -21 1574 0
628 -94 -96 2819 -2821 0
628 -94 96 2819 2821 0
628 94 -96 -2819 -2821 0
628 94 96 -2819 2821 0
628 -94 96 -2819 -2821 0
628 94 96 2819 -2821 0
628 -94 -96 -2819 2821 0
628 94 -96 2819 2821 0
628 -140 -178 2002 -2004 0
628 -140 178 2002 2004 0
628 140 -178 -2002 -2004 0
628 140 178 -2002 2004 0
628 -140 178 -2002 -2004 0
628 140 178 2002 -2004 0
628 -140 -178 -2002 2004 0
628 140 -178 2002 2004 0
628 112 -116 -125 -2008 0
628 112 -116 125 2008 0
628 -112 116 -125 -2008 0
628 -112 116 125 2008 0
628 -112 -116 125 -2008 0
628 112 116 125 -2008 0
628 -112 -116 -125 2008 0
628 112 116 -125 2008 0
628 -35 -193 1673 -1675 0
628 -35 193 1673 1675 0
628 35 -193 -1673 -1675 0
628 35 193 -1673 1675 0
628 -35 193 -1673 -1675 0
628 35 193 1673 -1675 0
628 -35 -193 -1673 1675 0
628 35 -193 1673 1675 0
628 -127 -136 2022 -2024 0
628 -127 136 2022 2024 0
628 127 -136 -2022 -2024 0
628 127 136 -2022 2024 0
628 -127 136 -2022 -2024 0
628 127 136 2022 -2024 0
628 -127 -136 -2022 2024 0
628 127 -136 2022 2024 0
628 -411 -419 1008 -1010 0
628 -411 419 1008 1010 0
628 411 -419 -1008 -1010 0
628 411 419 -1008 1010 0
628 -411 419 -1008 -1010 0
628 411 419 1008 -1010 0
628 -411 -419 -1008 1010 0
628 411 -419 1008 1010 0
628 271 -303 -340 -1014 0
628 271 -303 340 1014 0
628 -271 303 -340 -1014 0
628 -271 303 340 1014 0
628 -271 -303 340 -1014 0
628 271 303 340 -1014 0
628 -271 -303 -340 1014 0
628 271 303 -340 1014 0
628 269 -302 -341 -1259 0
628 269 -302 341 1259 0
628 -269 302 -341 -1259 0
628 -269 302 341 1259 0
628 -269 -302 341 -1259 0
628 269 302 341 -1259 0
628 -269 -302 -341 1259 0
628 269 302 -341 1259 0
628 272 -304 -341 -1021 0
628 272 -304 341 1021 0
628 -272 304 -341 -1021 0
628 -272 304 341 1021 0
628 -272 -304 341 -1021 0
628 272 304 341 -1021 0
628 -272 -304 -341 1021 0
628 272 304 -341 1021 0
628 2 -4 -5 -2518 0
628 2 -4 5 2518 0
628 -2 4 -5 -2518 0
628 -2 4 5 2518 0
628 -2 -4 5 -2518 0
628 2 4 5 -2518 0
628 -2 -4 -5 2518 0
628 2 4 -5 2518 0
