p wcnf 1739 5086 376
1 -289 0
1 -290 0
1 -291 0
1 -292 0
1 -293 0
1 -294 0
1 -295 0
1 -296 0
1 -297 0
1 -298 0
1 -299 0
1 -300 0
1 -301 0
1 -302 0
1 -303 0
1 -304 0
1 -305 0
1 -306 0
1 -307 0
1 -308 0
1 -309 0
1 -310 0
1 -311 0
1 -312 0
1 -313 0
1 -314 0
1 -315 0
1 -316 0
1 -317 0
1 -318 0
1 -319 0
1 -320 0
1 -321 0
1 -322 0
1 -323 0
1 -324 0
1 -325 0
1 -326 0
1 -327 0
1 -328 0
1 -329 0
1 -330 0
1 -331 0
1 -332 0
1 -333 0
1 -334 0
1 -335 0
1 -336 0
1 -337 0
1 -338 0
1 -339 0
1 -340 0
1 -341 0
1 -342 0
1 -343 0
1 -344 0
1 -345 0
1 -346 0
1 -347 0
1 -348 0
1 -349 0
1 -350 0
1 -351 0
1 -352 0
1 -353 0
1 -354 0
1 -355 0
1 -356 0
1 -357 0
1 -358 0
1 -359 0
1 -360 0
1 -361 0
1 -362 0
1 -363 0
1 -364 0
1 -365 0
1 -366 0
1 -367 0
1 -368 0
1 -369 0
1 -370 0
1 -371 0
1 -372 0
1 -373 0
1 -374 0
1 -375 0
1 -376 0
1 -377 0
1 -378 0
1 -379 0
1 -380 0
1 -381 0
1 -382 0
1 -383 0
1 -384 0
1 -385 0
1 -386 0
1 -387 0
1 -388 0
1 -389 0
1 -390 0
1 -391 0
1 -392 0
1 -393 0
1 -394 0
1 -395 0
1 -396 0
1 -397 0
1 -398 0
1 -399 0
1 -400 0
1 -401 0
1 -402 0
1 -403 0
1 -404 0
1 -405 0
1 -406 0
1 -407 0
1 -408 0
1 -409 0
1 -410 0
1 -411 0
1 -412 0
1 -413 0
1 -414 0
1 -415 0
1 -416 0
1 -417 0
1 -418 0
1 -419 0
1 -420 0
1 -421 0
1 -422 0
1 -423 0
1 -424 0
1 -425 0
1 -426 0
1 -427 0
1 -428 0
1 -429 0
1 -430 0
1 -431 0
1 -432 0
376 -172 -181 -619 0
376 172 181 -619 0
376 172 -181 619 0
376 -172 181 619 0
376 -246 -621 -622 0
376 246 621 -622 0
376 -246 621 622 0
376 246 -621 622 0
376 -175 -184 -637 0
376 175 184 -637 0
376 175 -184 637 0
376 -175 184 637 0
376 -249 -639 -640 0
376 249 639 -640 0
376 -249 639 640 0
376 249 -639 640 0
376 -177 -186 -649 0
376 177 186 -649 0
376 177 -186 649 0
376 -177 186 649 0
376 -251 -651 -652 0
376 251 651 -652 0
376 -251 651 652 0
376 251 -651 652 0
376 -182 -191 -679 0
376 182 191 -679 0
376 182 -191 679 0
376 -182 191 679 0
376 -256 -681 -682 0
376 256 681 -682 0
376 -256 681 682 0
376 256 -681 682 0
376 -185 -194 -697 0
376 185 194 -697 0
376 185 -194 697 0
376 -185 194 697 0
376 -259 -699 -700 0
376 259 699 -700 0
376 -259 699 700 0
376 259 -699 700 0
376 -189 -198 -721 0
376 189 198 -721 0
376 189 -198 721 0
376 -189 198 721 0
376 -263 -723 -724 0
376 263 723 -724 0
376 -263 723 724 0
376 263 -723 724 0
376 -193 -202 -745 0
376 193 202 -745 0
376 193 -202 745 0
376 -193 202 745 0
376 -267 -747 -748 0
376 267 747 -748 0
376 -267 747 748 0
376 267 -747 748 0
376 -194 -203 -751 0
376 194 203 -751 0
376 194 -203 751 0
376 -194 203 751 0
376 -268 -753 -754 0
376 268 753 -754 0
376 -268 753 754 0
376 268 -753 754 0
376 -195 -204 -757 0
376 195 204 -757 0
376 195 -204 757 0
376 -195 204 757 0
376 -269 -759 -760 0
376 269 759 -760 0
376 -269 759 760 0
376 269 -759 760 0
376 -198 -207 -775 0
376 198 207 -775 0
376 198 -207 775 0
376 -198 207 775 0
376 -272 -777 -778 0
376 272 777 -778 0
376 -272 777 778 0
376 272 -777 778 0
376 -199 -208 -781 0
376 199 208 -781 0
376 199 -208 781 0
376 -199 208 781 0
376 -271 -783 -784 0
376 271 783 -784 0
376 -271 783 784 0
376 271 -783 784 0
376 -205 -214 -817 0
376 205 214 -817 0
376 205 -214 817 0
376 -205 214 817 0
376 -276 -819 -820 0
376 276 819 -820 0
376 -276 819 820 0
376 276 -819 820 0
376 -145 -208 -835 0
376 145 208 -835 0
376 145 -208 835 0
376 -145 208 835 0
376 -279 -837 -838 0
376 279 837 -838 0
376 -279 837 838 0
376 279 -837 838 0
376 -147 -210 -847 0
376 147 210 -847 0
376 147 -210 847 0
376 -147 210 847 0
376 -281 -849 -850 0
376 281 849 -850 0
376 -281 849 850 0
376 281 -849 850 0
376 -1 -2 -853 0
376 1 2 -853 0
376 1 -2 853 0
376 -1 2 853 0
376 -71 -855 -856 0
376 71 855 -856 0
376 -71 855 856 0
376 71 -855 856 0
376 -1 -3 -865 0
376 1 3 -865 0
376 1 -3 865 0
376 -1 3 865 0
376 -61 -867 -868 0
376 61 867 -868 0
376 -61 867 868 0
376 61 -867 868 0
376 -2 -4 -871 0
376 2 4 -871 0
376 2 -4 871 0
376 -2 4 871 0
376 -62 -873 -874 0
376 62 873 -874 0
376 -62 873 874 0
376 62 -873 874 0
376 -8 -10 -907 0
376 8 10 -907 0
376 8 -10 907 0
376 -8 10 907 0
376 -68 -909 -910 0
376 68 909 -910 0
376 -68 909 910 0
376 68 -909 910 0
376 -12 -14 -931 0
376 12 14 -931 0
376 12 -14 931 0
376 -12 14 931 0
376 -72 -933 -934 0
376 72 933 -934 0
376 -72 933 934 0
376 72 -933 934 0
376 -1 -5 -961 0
376 1 5 -961 0
376 1 -5 961 0
376 -1 5 961 0
376 -20 -963 -964 0
376 20 963 -964 0
376 -20 963 964 0
376 20 -963 964 0
376 -4 -8 -979 0
376 4 8 -979 0
376 4 -8 979 0
376 -4 8 979 0
376 -23 -981 -982 0
376 23 981 -982 0
376 -23 981 982 0
376 23 -981 982 0
376 -9 -13 -1009 0
376 9 13 -1009 0
376 9 -13 1009 0
376 -9 13 1009 0
376 -28 -1011 -1012 0
376 28 1011 -1012 0
376 -28 1011 1012 0
376 28 -1011 1012 0
376 -24 -28 -1099 0
376 24 28 -1099 0
376 24 -28 1099 0
376 -24 28 1099 0
376 -43 -1101 -1102 0
376 43 1101 -1102 0
376 -43 1101 1102 0
376 43 -1101 1102 0
376 -26 -30 -1111 0
376 26 30 -1111 0
376 26 -30 1111 0
376 -26 30 1111 0
376 -45 -1113 -1114 0
376 45 1113 -1114 0
376 -45 1113 1114 0
376 45 -1113 1114 0
376 -28 -32 -1123 0
376 28 32 -1123 0
376 28 -32 1123 0
376 -28 32 1123 0
376 -47 -1125 -1126 0
376 47 1125 -1126 0
376 -47 1125 1126 0
376 47 -1125 1126 0
376 -29 -33 -1129 0
376 29 33 -1129 0
376 29 -33 1129 0
376 -29 33 1129 0
376 -48 -1131 -1132 0
376 48 1131 -1132 0
376 -48 1131 1132 0
376 48 -1131 1132 0
376 -31 -35 -1141 0
376 31 35 -1141 0
376 31 -35 1141 0
376 -31 35 1141 0
376 -50 -1143 -1144 0
376 50 1143 -1144 0
376 -50 1143 1144 0
376 50 -1143 1144 0
376 -34 -38 -1159 0
376 34 38 -1159 0
376 34 -38 1159 0
376 -34 38 1159 0
376 -53 -1161 -1162 0
376 53 1161 -1162 0
376 -53 1161 1162 0
376 53 -1161 1162 0
376 -35 -39 -1165 0
376 35 39 -1165 0
376 35 -39 1165 0
376 -35 39 1165 0
376 -54 -1167 -1168 0
376 54 1167 -1168 0
376 -54 1167 1168 0
376 54 -1167 1168 0
376 -39 -43 -1189 0
376 39 43 -1189 0
376 39 -43 1189 0
376 -39 43 1189 0
376 -58 -1191 -1192 0
376 58 1191 -1192 0
376 -58 1191 1192 0
376 58 -1191 1192 0
376 -40 -44 -1195 0
376 40 44 -1195 0
376 40 -44 1195 0
376 -40 44 1195 0
376 -59 -1197 -1198 0
376 59 1197 -1198 0
376 -59 1197 1198 0
376 59 -1197 1198 0
376 -41 -45 -1201 0
376 41 45 -1201 0
376 41 -45 1201 0
376 -41 45 1201 0
376 -60 -1203 -1204 0
376 60 1203 -1204 0
376 -60 1203 1204 0
376 60 -1203 1204 0
376 -43 -47 -1213 0
376 43 47 -1213 0
376 43 -47 1213 0
376 -43 47 1213 0
376 -62 -1215 -1216 0
376 62 1215 -1216 0
376 -62 1215 1216 0
376 62 -1215 1216 0
376 -44 -48 -1219 0
376 44 48 -1219 0
376 44 -48 1219 0
376 -44 48 1219 0
376 -63 -1221 -1222 0
376 63 1221 -1222 0
376 -63 1221 1222 0
376 63 -1221 1222 0
376 -45 -49 -1225 0
376 45 49 -1225 0
376 45 -49 1225 0
376 -45 49 1225 0
376 -64 -1227 -1228 0
376 64 1227 -1228 0
376 -64 1227 1228 0
376 64 -1227 1228 0
376 -48 -52 -1243 0
376 48 52 -1243 0
376 48 -52 1243 0
376 -48 52 1243 0
376 -67 -1245 -1246 0
376 67 1245 -1246 0
376 -67 1245 1246 0
376 67 -1245 1246 0
376 1 2 3 4 5 6 7 8 9 10 11 12 13 14 15 16 17 18 19 20 21 22 23 24 25 26 27 28 29 30 31 32 33 34 35 36 37 38 39 40 41 42 43 44 45 46 47 48 49 50 51 52 53 54 55 56 57 58 59 60 61 62 63 64 65 66 67 68 69 70 71 72 73 74 75 76 77 78 79 80 81 82 83 84 85 86 87 88 89 90 91 92 93 94 95 96 97 98 99 100 101 102 103 104 105 106 107 108 109 110 111 112 113 114 115 116 117 118 119 120 121 122 123 124 125 126 127 128 129 130 131 132 133 134 135 136 137 138 139 140 141 142 143 144 145 146 147 148 149 150 151 152 153 154 155 156 157 158 159 160 161 162 163 164 165 166 167 168 169 170 171 172 173 174 175 176 177 178 179 180 181 182 183 184 185 186 187 188 189 190 191 192 193 194 195 196 197 198 199 200 201 202 203 204 205 206 207 208 209 210 211 212 213 214 215 216 217 218 219 220 221 222 223 224 225 226 227 228 229 230 231 232 233 234 235 236 237 238 239 240 241 242 243 244 245 246 247 248 249 250 251 252 253 254 255 256 257 258 259 260 261 262 263 264 265 266 267 268 269 270 271 272 273 274 275 276 277 278 279 280 281 282 283 284 285 286 287 288 0
376 -2 -11 -1257 0
376 2 11 -1257 0
376 2 -11 1257 0
376 -2 11 1257 0
376 -38 -1259 -1260 0
376 38 1259 -1260 0
376 -38 1259 1260 0
376 38 -1259 1260 0
376 -6 -15 -1289 0
376 6 15 -1289 0
376 6 -15 1289 0
376 -6 15 1289 0
376 -42 -1291 -1292 0
376 42 1291 -1292 0
376 -42 1291 1292 0
376 42 -1291 1292 0
376 -8 -10 -1297 0
376 8 10 -1297 0
376 8 -10 1297 0
376 -8 10 1297 0
376 -22 -1301 -1302 0
376 22 1301 -1302 0
376 -22 1301 1302 0
376 22 -1301 1302 0
376 -46 -1312 -1313 0
376 46 1312 -1313 0
376 -46 1312 1313 0
376 46 -1312 1313 0
376 -53 -1315 -1316 0
376 53 1315 -1316 0
376 -53 1315 1316 0
376 53 -1315 1316 0
376 -73 -1320 -1321 0
376 73 1320 -1321 0
376 -73 1320 1321 0
376 73 -1320 1321 0
376 -9 -11 -1324 0
376 9 11 -1324 0
376 9 -11 1324 0
376 -9 11 1324 0
376 -45 -1338 -1339 0
376 45 1338 -1339 0
376 -45 1338 1339 0
376 45 -1338 1339 0
376 -51 -1341 -1342 0
376 51 1341 -1342 0
376 -51 1341 1342 0
376 51 -1341 1342 0
376 -1 -12 -1351 0
376 1 12 -1351 0
376 1 -12 1351 0
376 -1 12 1351 0
376 -21 -1353 -1354 0
376 21 1353 -1354 0
376 -21 1353 1354 0
376 21 -1353 1354 0
376 -52 -1364 -1365 0
376 52 1364 -1365 0
376 -52 1364 1365 0
376 52 -1364 1365 0
376 -19 -1375 -1376 0
376 19 1375 -1376 0
376 -19 1375 1376 0
376 19 -1375 1376 0
376 -28 -1378 -1379 0
376 28 1378 -1379 0
376 -28 1378 1379 0
376 28 -1378 1379 0
376 -37 -1381 -1382 0
376 37 1381 -1382 0
376 -37 1381 1382 0
376 37 -1381 1382 0
376 -52 -1386 -1387 0
376 52 1386 -1387 0
376 -52 1386 1387 0
376 52 -1386 1387 0
376 -15 -1395 -1396 0
376 15 1395 -1396 0
376 -15 1395 1396 0
376 15 -1395 1396 0
376 -47 -1406 -1407 0
376 47 1406 -1407 0
376 -47 1406 1407 0
376 47 -1406 1407 0
376 -21 -1419 -1420 0
376 21 1419 -1420 0
376 -21 1419 1420 0
376 21 -1419 1420 0
376 -61 -1432 -1433 0
376 61 1432 -1433 0
376 -61 1432 1433 0
376 61 -1432 1433 0
376 -175 -1443 -1444 0
376 175 1443 -1444 0
376 -175 1443 1444 0
376 175 -1443 1444 0
376 -199 -1448 -1449 0
376 199 1448 -1449 0
376 -199 1448 1449 0
376 199 -1448 1449 0
376 -146 -149 -1454 0
376 146 149 -1454 0
376 146 -149 1454 0
376 -146 149 1454 0
376 -200 -1464 -1465 0
376 200 1464 -1465 0
376 -200 1464 1465 0
376 200 -1464 1465 0
376 -147 -150 -1470 0
376 147 150 -1470 0
376 147 -150 1470 0
376 -147 150 1470 0
376 -165 -1472 -1473 0
376 165 1472 -1473 0
376 -165 1472 1473 0
376 165 -1472 1473 0
376 -177 -1475 -1476 0
376 177 1475 -1476 0
376 -177 1475 1476 0
376 177 -1475 1476 0
376 -201 -1480 -1481 0
376 201 1480 -1481 0
376 -201 1480 1481 0
376 201 -1480 1481 0
376 -145 -151 -1486 0
376 145 151 -1486 0
376 145 -151 1486 0
376 -145 151 1486 0
376 -199 -1496 -1497 0
376 199 1496 -1497 0
376 -199 1496 1497 0
376 199 -1496 1497 0
376 -179 -1507 -1508 0
376 179 1507 -1508 0
376 -179 1507 1508 0
376 179 -1507 1508 0
376 -191 -1510 -1511 0
376 191 1510 -1511 0
376 -191 1510 1511 0
376 191 -1510 1511 0
376 -189 -1525 -1526 0
376 189 1525 -1526 0
376 -189 1525 1526 0
376 189 -1525 1526 0
376 -210 -1530 -1531 0
376 210 1530 -1531 0
376 -210 1530 1531 0
376 210 -1530 1531 0
376 -199 -1555 -1556 0
376 199 1555 -1556 0
376 -199 1555 1556 0
376 199 -1555 1556 0
376 -149 -150 -1565 0
376 149 150 -1565 0
376 149 -150 1565 0
376 -149 150 1565 0
376 -158 -1567 -1568 0
376 158 1567 -1568 0
376 -158 1567 1568 0
376 158 -1567 1568 0
376 -165 -1570 -1571 0
376 165 1570 -1571 0
376 -165 1570 1571 0
376 165 -1570 1571 0
376 -173 -1573 -1574 0
376 173 1573 -1574 0
376 -173 1573 1574 0
376 173 -1573 1574 0
376 -183 -1578 -1579 0
376 183 1578 -1579 0
376 -183 1578 1579 0
376 183 -1578 1579 0
376 -186 -1581 -1582 0
376 186 1581 -1582 0
376 -186 1581 1582 0
376 186 -1581 1582 0
376 -210 -1592 -1593 0
376 210 1592 -1593 0
376 -210 1592 1593 0
376 210 -1592 1593 0
376 -145 -148 -1596 0
376 145 148 -1596 0
376 145 -148 1596 0
376 -145 148 1596 0
376 -157 -1600 -1601 0
376 157 1600 -1601 0
376 -157 1600 1601 0
376 157 -1600 1601 0
376 -160 -1603 -1604 0
376 160 1603 -1604 0
376 -160 1603 1604 0
376 160 -1603 1604 0
376 -157 -1634 -1635 0
376 157 1634 -1635 0
376 -157 1634 1635 0
376 157 -1634 1635 0
376 -160 -1637 -1638 0
376 160 1637 -1638 0
376 -160 1637 1638 0
376 160 -1637 1638 0
376 -193 -1652 -1653 0
376 193 1652 -1653 0
376 -193 1652 1653 0
376 193 -1652 1653 0
376 -175 -1683 -1684 0
376 175 1683 -1684 0
376 -175 1683 1684 0
376 175 -1683 1684 0
376 -182 -1686 -1687 0
376 182 1686 -1687 0
376 -182 1686 1687 0
376 182 -1686 1687 0
376 -210 -1699 -1700 0
376 210 1699 -1700 0
376 -210 1699 1700 0
376 210 -1699 1700 0
376 -145 -146 -1703 0
376 145 146 -1703 0
376 145 -146 1703 0
376 -145 146 1703 0
376 -160 -1711 -1712 0
376 160 1711 -1712 0
376 -160 1711 1712 0
376 160 -1711 1712 0
376 -176 -1722 -1723 0
376 176 1722 -1723 0
376 -176 1722 1723 0
376 176 -1722 1723 0
376 -188 -1727 -1728 0
376 188 1727 -1728 0
376 -188 1727 1728 0
376 188 -1727 1728 0
376 -199 -1734 -1735 0
376 199 1734 -1735 0
376 -199 1734 1735 0
376 199 -1734 1735 0
376 433 434 435 436 437 438 439 440 441 442 443 444 445 446 447 448 449 450 451 452 453 454 455 456 0
376 1 145 -289 0
376 -1 289 0
376 -145 289 0
376 2 146 -290 0
376 -2 290 0
376 -146 290 0
376 3 147 -291 0
376 -3 291 0
376 -147 291 0
376 4 148 -292 0
376 -4 292 0
376 -148 292 0
376 5 149 -293 0
376 -5 293 0
376 -149 293 0
376 6 150 -294 0
376 -6 294 0
376 -150 294 0
376 7 151 -295 0
376 -7 295 0
376 -151 295 0
376 8 152 -296 0
376 -8 296 0
376 -152 296 0
376 9 153 -297 0
376 -9 297 0
376 -153 297 0
376 10 154 -298 0
376 -10 298 0
376 -154 298 0
376 11 155 -299 0
376 -11 299 0
376 -155 299 0
376 12 156 -300 0
376 -12 300 0
376 -156 300 0
376 13 157 -301 0
376 -13 301 0
376 -157 301 0
376 14 158 -302 0
376 -14 302 0
376 -158 302 0
376 15 159 -303 0
376 -15 303 0
376 -159 303 0
376 16 160 -304 0
376 -16 304 0
376 -160 304 0
376 17 161 -305 0
376 -17 305 0
376 -161 305 0
376 18 162 -306 0
376 -18 306 0
376 -162 306 0
376 19 163 -307 0
376 -19 307 0
376 -163 307 0
376 20 164 -308 0
376 -20 308 0
376 -164 308 0
376 21 165 -309 0
376 -21 309 0
376 -165 309 0
376 22 166 -310 0
376 -22 310 0
376 -166 310 0
376 23 167 -311 0
376 -23 311 0
376 -167 311 0
376 24 168 -312 0
376 -24 312 0
376 -168 312 0
376 25 169 -313 0
376 -25 313 0
376 -169 313 0
376 26 170 -314 0
376 -26 314 0
376 -170 314 0
376 27 171 -315 0
376 -27 315 0
376 -171 315 0
376 28 172 -316 0
376 -28 316 0
376 -172 316 0
376 29 173 -317 0
376 -29 317 0
376 -173 317 0
376 30 174 -318 0
376 -30 318 0
376 -174 318 0
376 31 175 -319 0
376 -31 319 0
376 -175 319 0
376 32 176 -320 0
376 -32 320 0
376 -176 320 0
376 33 177 -321 0
376 -33 321 0
376 -177 321 0
376 34 178 -322 0
376 -34 322 0
376 -178 322 0
376 35 179 -323 0
376 -35 323 0
376 -179 323 0
376 36 180 -324 0
376 -36 324 0
376 -180 324 0
376 37 181 -325 0
376 -37 325 0
376 -181 325 0
376 38 182 -326 0
376 -38 326 0
376 -182 326 0
376 39 183 -327 0
376 -39 327 0
376 -183 327 0
376 40 184 -328 0
376 -40 328 0
376 -184 328 0
376 41 185 -329 0
376 -41 329 0
376 -185 329 0
376 42 186 -330 0
376 -42 330 0
376 -186 330 0
376 43 187 -331 0
376 -43 331 0
376 -187 331 0
376 44 188 -332 0
376 -44 332 0
376 -188 332 0
376 45 189 -333 0
376 -45 333 0
376 -189 333 0
376 46 190 -334 0
376 -46 334 0
376 -190 334 0
376 47 191 -335 0
376 -47 335 0
376 -191 335 0
376 48 192 -336 0
376 -48 336 0
376 -192 336 0
376 49 193 -337 0
376 -49 337 0
376 -193 337 0
376 50 194 -338 0
376 -50 338 0
376 -194 338 0
376 51 195 -339 0
376 -51 339 0
376 -195 339 0
376 52 196 -340 0
376 -52 340 0
376 -196 340 0
376 53 197 -341 0
376 -53 341 0
376 -197 341 0
376 54 198 -342 0
376 -54 342 0
376 -198 342 0
376 55 199 -343 0
376 -55 343 0
376 -199 343 0
376 56 200 -344 0
376 -56 344 0
376 -200 344 0
376 57 201 -345 0
376 -57 345 0
376 -201 345 0
376 58 202 -346 0
376 -58 346 0
376 -202 346 0
376 59 203 -347 0
376 -59 347 0
376 -203 347 0
376 60 204 -348 0
376 -60 348 0
376 -204 348 0
376 61 205 -349 0
376 -61 349 0
376 -205 349 0
376 62 206 -350 0
376 -62 350 0
376 -206 350 0
376 63 207 -351 0
376 -63 351 0
376 -207 351 0
376 64 208 -352 0
376 -64 352 0
376 -208 352 0
376 65 209 -353 0
376 -65 353 0
376 -209 353 0
376 66 210 -354 0
376 -66 354 0
376 -210 354 0
376 67 211 -355 0
376 -67 355 0
376 -211 355 0
376 68 212 -356 0
376 -68 356 0
376 -212 356 0
376 69 213 -357 0
376 -69 357 0
376 -213 357 0
376 70 214 -358 0
376 -70 358 0
376 -214 358 0
376 71 215 -359 0
376 -71 359 0
376 -215 359 0
376 72 216 -360 0
376 -72 360 0
376 -216 360 0
376 73 217 -361 0
376 -73 361 0
376 -217 361 0
376 74 218 -362 0
376 -74 362 0
376 -218 362 0
376 75 219 -363 0
376 -75 363 0
376 -219 363 0
376 76 220 -364 0
376 -76 364 0
376 -220 364 0
376 77 221 -365 0
376 -77 365 0
376 -221 365 0
376 78 222 -366 0
376 -78 366 0
376 -222 366 0
376 79 223 -367 0
376 -79 367 0
376 -223 367 0
376 80 224 -368 0
376 -80 368 0
376 -224 368 0
376 81 225 -369 0
376 -81 369 0
376 -225 369 0
376 82 226 -370 0
376 -82 370 0
376 -226 370 0
376 83 227 -371 0
376 -83 371 0
376 -227 371 0
376 84 228 -372 0
376 -84 372 0
376 -228 372 0
376 85 229 -373 0
376 -85 373 0
376 -229 373 0
376 86 230 -374 0
376 -86 374 0
376 -230 374 0
376 87 231 -375 0
376 -87 375 0
376 -231 375 0
376 88 232 -376 0
376 -88 376 0
376 -232 376 0
376 89 233 -377 0
376 -89 377 0
376 -233 377 0
376 90 234 -378 0
376 -90 378 0
376 -234 378 0
376 91 235 -379 0
376 -91 379 0
376 -235 379 0
376 92 236 -380 0
376 -92 380 0
376 -236 380 0
376 93 237 -381 0
376 -93 381 0
376 -237 381 0
376 94 238 -382 0
376 -94 382 0
376 -238 382 0
376 95 239 -383 0
376 -95 383 0
376 -239 383 0
376 96 240 -384 0
376 -96 384 0
376 -240 384 0
376 97 241 -385 0
376 -97 385 0
376 -241 385 0
376 98 242 -386 0
376 -98 386 0
376 -242 386 0
376 99 243 -387 0
376 -99 387 0
376 -243 387 0
376 100 244 -388 0
376 -100 388 0
376 -244 388 0
376 101 245 -389 0
376 -101 389 0
376 -245 389 0
376 102 246 -390 0
376 -102 390 0
376 -246 390 0
376 103 247 -391 0
376 -103 391 0
376 -247 391 0
376 104 248 -392 0
376 -104 392 0
376 -248 392 0
376 105 249 -393 0
376 -105 393 0
376 -249 393 0
376 106 250 -394 0
376 -106 394 0
376 -250 394 0
376 107 251 -395 0
376 -107 395 0
376 -251 395 0
376 108 252 -396 0
376 -108 396 0
376 -252 396 0
376 109 253 -397 0
376 -109 397 0
376 -253 397 0
376 110 254 -398 0
376 -110 398 0
376 -254 398 0
376 111 255 -399 0
376 -111 399 0
376 -255 399 0
376 112 256 -400 0
376 -112 400 0
376 -256 400 0
376 113 257 -401 0
376 -113 401 0
376 -257 401 0
376 114 258 -402 0
376 -114 402 0
376 -258 402 0
376 115 259 -403 0
376 -115 403 0
376 -259 403 0
376 116 260 -404 0
376 -116 404 0
376 -260 404 0
376 117 261 -405 0
376 -117 405 0
376 -261 405 0
376 118 262 -406 0
376 -118 406 0
376 -262 406 0
376 119 263 -407 0
376 -119 407 0
376 -263 407 0
376 120 264 -408 0
376 -120 408 0
376 -264 408 0
376 121 265 -409 0
376 -121 409 0
376 -265 409 0
376 122 266 -410 0
376 -122 410 0
376 -266 410 0
376 123 267 -411 0
376 -123 411 0
376 -267 411 0
376 124 268 -412 0
376 -124 412 0
376 -268 412 0
376 125 269 -413 0
376 -125 413 0
376 -269 413 0
376 126 270 -414 0
376 -126 414 0
376 -270 414 0
376 127 271 -415 0
376 -127 415 0
376 -271 415 0
376 128 272 -416 0
376 -128 416 0
376 -272 416 0
376 129 273 -417 0
376 -129 417 0
376 -273 417 0
376 130 274 -418 0
376 -130 418 0
376 -274 418 0
376 131 275 -419 0
376 -131 419 0
376 -275 419 0
376 132 276 -420 0
376 -132 420 0
376 -276 420 0
376 133 277 -421 0
376 -133 421 0
376 -277 421 0
376 134 278 -422 0
376 -134 422 0
376 -278 422 0
376 135 279 -423 0
376 -135 423 0
376 -279 423 0
376 136 280 -424 0
376 -136 424 0
376 -280 424 0
376 137 281 -425 0
376 -137 425 0
376 -281 425 0
376 138 282 -426 0
376 -138 426 0
376 -282 426 0
376 139 283 -427 0
376 -139 427 0
376 -283 427 0
376 140 284 -428 0
376 -140 428 0
376 -284 428 0
376 141 285 -429 0
376 -141 429 0
376 -285 429 0
376 142 286 -430 0
376 -142 430 0
376 -286 430 0
376 143 287 -431 0
376 -143 431 0
376 -287 431 0
376 144 288 -432 0
376 -144 432 0
376 -288 432 0
376 -240 244 514 0
376 240 244 -514 0
376 -240 -244 -514 0
376 240 -244 514 0
376 -92 101 1024 0
376 92 101 -1024 0
376 -92 -101 -1024 0
376 92 -101 1024 0
376 -93 102 1030 0
376 93 102 -1030 0
376 -93 -102 -1030 0
376 93 -102 1030 0
376 -222 456 1737 0
376 222 456 -1737 0
376 -222 -456 -1737 0
376 222 -456 1737 0
376 -97 106 1054 0
376 97 106 -1054 0
376 -97 -106 -1054 0
376 97 -106 1054 0
376 -94 103 1036 0
376 94 103 -1036 0
376 -94 -103 -1036 0
376 94 -103 1036 0
376 -241 245 520 0
376 241 245 -520 0
376 -241 -245 -520 0
376 241 -245 520 0
376 -95 104 1042 0
376 95 104 -1042 0
376 -95 -104 -1042 0
376 95 -104 1042 0
376 -96 105 1048 0
376 96 105 -1048 0
376 -96 -105 -1048 0
376 96 -105 1048 0
376 -242 246 526 0
376 242 246 -526 0
376 -242 -246 -526 0
376 242 -246 526 0
376 -98 107 1060 0
376 98 107 -1060 0
376 -98 -107 -1060 0
376 98 -107 1060 0
376 -243 247 532 0
376 243 247 -532 0
376 -243 -247 -532 0
376 243 -247 532 0
376 -99 108 1066 0
376 99 108 -1066 0
376 -99 -108 -1066 0
376 99 -108 1066 0
376 -244 248 538 0
376 244 248 -538 0
376 -244 -248 -538 0
376 244 -248 538 0
376 -100 109 1072 0
376 100 109 -1072 0
376 -100 -109 -1072 0
376 100 -109 1072 0
376 -101 110 1078 0
376 101 110 -1078 0
376 -101 -110 -1078 0
376 101 -110 1078 0
376 -102 111 1084 0
376 102 111 -1084 0
376 -102 -111 -1084 0
376 102 -111 1084 0
376 -245 249 544 0
376 245 249 -544 0
376 -245 -249 -544 0
376 245 -249 544 0
376 -103 112 1090 0
376 103 112 -1090 0
376 -103 -112 -1090 0
376 103 -112 1090 0
376 -246 250 550 0
376 246 250 -550 0
376 -246 -250 -550 0
376 246 -250 550 0
376 -104 113 1096 0
376 104 113 -1096 0
376 -104 -113 -1096 0
376 104 -113 1096 0
376 -105 114 1102 0
376 105 114 -1102 0
376 -105 -114 -1102 0
376 105 -114 1102 0
376 -106 115 1108 0
376 106 115 -1108 0
376 -106 -115 -1108 0
376 106 -115 1108 0
376 -107 116 1114 0
376 107 116 -1114 0
376 -107 -116 -1114 0
376 107 -116 1114 0
376 -113 122 1150 0
376 113 122 -1150 0
376 -113 -122 -1150 0
376 113 -122 1150 0
376 -247 251 556 0
376 247 251 -556 0
376 -247 -251 -556 0
376 247 -251 556 0
376 -248 252 562 0
376 248 252 -562 0
376 -248 -252 -562 0
376 248 -252 562 0
376 -108 117 1120 0
376 108 117 -1120 0
376 -108 -117 -1120 0
376 108 -117 1120 0
376 -111 120 1138 0
376 111 120 -1138 0
376 -111 -120 -1138 0
376 111 -120 1138 0
376 -109 118 1126 0
376 109 118 -1126 0
376 -109 -118 -1126 0
376 109 -118 1126 0
376 -110 119 1132 0
376 110 119 -1132 0
376 -110 -119 -1132 0
376 110 -119 1132 0
376 -249 253 568 0
376 249 253 -568 0
376 -249 -253 -568 0
376 249 -253 568 0
376 -112 121 1144 0
376 112 121 -1144 0
376 -112 -121 -1144 0
376 112 -121 1144 0
376 -250 254 574 0
376 250 254 -574 0
376 -250 -254 -574 0
376 250 -254 574 0
376 -114 123 1156 0
376 114 123 -1156 0
376 -114 -123 -1156 0
376 114 -123 1156 0
376 -251 255 580 0
376 251 255 -580 0
376 -251 -255 -580 0
376 251 -255 580 0
376 -115 124 1162 0
376 115 124 -1162 0
376 -115 -124 -1162 0
376 115 -124 1162 0
376 -116 125 1168 0
376 116 125 -1168 0
376 -116 -125 -1168 0
376 116 -125 1168 0
376 -252 256 586 0
376 252 256 -586 0
376 -252 -256 -586 0
376 252 -256 586 0
376 -117 126 1174 0
376 117 126 -1174 0
376 -117 -126 -1174 0
376 117 -126 1174 0
376 -118 127 1180 0
376 118 127 -1180 0
376 -118 -127 -1180 0
376 118 -127 1180 0
376 -253 257 592 0
376 253 257 -592 0
376 -253 -257 -592 0
376 253 -257 592 0
376 -119 128 1186 0
376 119 128 -1186 0
376 -119 -128 -1186 0
376 119 -128 1186 0
376 -120 129 1192 0
376 120 129 -1192 0
376 -120 -129 -1192 0
376 120 -129 1192 0
376 -254 258 598 0
376 254 258 -598 0
376 -254 -258 -598 0
376 254 -258 598 0
376 -121 130 1198 0
376 121 130 -1198 0
376 -121 -130 -1198 0
376 121 -130 1198 0
376 -122 131 1204 0
376 122 131 -1204 0
376 -122 -131 -1204 0
376 122 -131 1204 0
376 -255 259 604 0
376 255 259 -604 0
376 -255 -259 -604 0
376 255 -259 604 0
376 -123 132 1210 0
376 123 132 -1210 0
376 -123 -132 -1210 0
376 123 -132 1210 0
376 -124 133 1216 0
376 124 133 -1216 0
376 -124 -133 -1216 0
376 124 -133 1216 0
376 -125 134 1222 0
376 125 134 -1222 0
376 -125 -134 -1222 0
376 125 -134 1222 0
376 -256 260 610 0
376 256 260 -610 0
376 -256 -260 -610 0
376 256 -260 610 0
376 -126 135 1228 0
376 126 135 -1228 0
376 -126 -135 -1228 0
376 126 -135 1228 0
376 -257 261 616 0
376 257 261 -616 0
376 -257 -261 -616 0
376 257 -261 616 0
376 -127 136 1234 0
376 127 136 -1234 0
376 -127 -136 -1234 0
376 127 -136 1234 0
376 -128 137 1240 0
376 128 137 -1240 0
376 -128 -137 -1240 0
376 128 -137 1240 0
376 -258 262 622 0
376 258 262 -622 0
376 -258 -262 -622 0
376 258 -262 622 0
376 -129 138 1246 0
376 129 138 -1246 0
376 -129 -138 -1246 0
376 129 -138 1246 0
376 -64 433 1254 0
376 64 433 -1254 0
376 -64 -433 -1254 0
376 64 -433 1254 0
376 -259 263 628 0
376 259 263 -628 0
376 -259 -263 -628 0
376 259 -263 628 0
376 -65 434 1262 0
376 65 434 -1262 0
376 -65 -434 -1262 0
376 65 -434 1262 0
376 -260 264 634 0
376 260 264 -634 0
376 -260 -264 -634 0
376 260 -264 634 0
376 -66 435 1270 0
376 66 435 -1270 0
376 -66 -435 -1270 0
376 66 -435 1270 0
376 -67 436 1278 0
376 67 436 -1278 0
376 -67 -436 -1278 0
376 67 -436 1278 0
376 -261 265 640 0
376 261 265 -640 0
376 -261 -265 -640 0
376 261 -265 640 0
376 -69 438 1294 0
376 69 438 -1294 0
376 -69 -438 -1294 0
376 69 -438 1294 0
376 -68 437 1286 0
376 68 437 -1286 0
376 -68 -437 -1286 0
376 68 -437 1286 0
376 -262 266 646 0
376 262 266 -646 0
376 -262 -266 -646 0
376 262 -266 646 0
376 -263 267 652 0
376 263 267 -652 0
376 -263 -267 -652 0
376 263 -267 652 0
376 -264 268 658 0
376 264 268 -658 0
376 -264 -268 -658 0
376 264 -268 658 0
376 -76 439 1321 0
376 76 439 -1321 0
376 -76 -439 -1321 0
376 76 -439 1321 0
376 -265 269 664 0
376 265 269 -664 0
376 -265 -269 -664 0
376 265 -269 664 0
376 -266 270 670 0
376 266 270 -670 0
376 -266 -270 -670 0
376 266 -270 670 0
376 -77 440 1348 0
376 77 440 -1348 0
376 -77 -440 -1348 0
376 77 -440 1348 0
376 -267 271 676 0
376 267 271 -676 0
376 -267 -271 -676 0
376 267 -271 676 0
376 -268 272 682 0
376 268 272 -682 0
376 -268 -272 -682 0
376 268 -272 682 0
376 -78 441 1369 0
376 78 441 -1369 0
376 -78 -441 -1369 0
376 78 -441 1369 0
376 -269 273 688 0
376 269 273 -688 0
376 -269 -273 -688 0
376 269 -273 688 0
376 -270 274 694 0
376 270 274 -694 0
376 -270 -274 -694 0
376 270 -274 694 0
376 -79 442 1391 0
376 79 442 -1391 0
376 -79 -442 -1391 0
376 79 -442 1391 0
376 -271 275 700 0
376 271 275 -700 0
376 -271 -275 -700 0
376 271 -275 700 0
376 -272 276 706 0
376 272 276 -706 0
376 -272 -276 -706 0
376 272 -276 706 0
376 -80 443 1413 0
376 80 443 -1413 0
376 -80 -443 -1413 0
376 80 -443 1413 0
376 -273 277 712 0
376 273 277 -712 0
376 -273 -277 -712 0
376 273 -277 712 0
376 -220 454 1659 0
376 220 454 -1659 0
376 -220 -454 -1659 0
376 220 -454 1659 0
376 -81 444 1435 0
376 81 444 -1435 0
376 -81 -444 -1435 0
376 81 -444 1435 0
376 -274 278 718 0
376 274 278 -718 0
376 -274 -278 -718 0
376 274 -278 718 0
376 -275 279 724 0
376 275 279 -724 0
376 -275 -279 -724 0
376 275 -279 724 0
376 -211 445 1451 0
376 211 445 -1451 0
376 -211 -445 -1451 0
376 211 -445 1451 0
376 -276 280 730 0
376 276 280 -730 0
376 -276 -280 -730 0
376 276 -280 730 0
376 -212 446 1467 0
376 212 446 -1467 0
376 -212 -446 -1467 0
376 212 -446 1467 0
376 -277 281 736 0
376 277 281 -736 0
376 -277 -281 -736 0
376 277 -281 736 0
376 -213 447 1483 0
376 213 447 -1483 0
376 -213 -447 -1483 0
376 213 -447 1483 0
376 -278 282 742 0
376 278 282 -742 0
376 -278 -282 -742 0
376 278 -282 742 0
376 -279 283 748 0
376 279 283 -748 0
376 -279 -283 -748 0
376 279 -283 748 0
376 -214 448 1499 0
376 214 448 -1499 0
376 -214 -448 -1499 0
376 214 -448 1499 0
376 -280 284 754 0
376 280 284 -754 0
376 -280 -284 -754 0
376 280 -284 754 0
376 -215 449 1515 0
376 215 449 -1515 0
376 -215 -449 -1515 0
376 215 -449 1515 0
376 -281 285 760 0
376 281 285 -760 0
376 -281 -285 -760 0
376 281 -285 760 0
376 -216 450 1531 0
376 216 450 -1531 0
376 -216 -450 -1531 0
376 216 -450 1531 0
376 -282 286 766 0
376 282 286 -766 0
376 -282 -286 -766 0
376 282 -286 766 0
376 -283 287 772 0
376 283 287 -772 0
376 -283 -287 -772 0
376 283 -287 772 0
376 -284 288 778 0
376 284 288 -778 0
376 -284 -288 -778 0
376 284 -288 778 0
376 -217 451 1562 0
376 217 451 -1562 0
376 -217 -451 -1562 0
376 217 -451 1562 0
376 -273 285 784 0
376 273 285 -784 0
376 -273 -285 -784 0
376 273 -285 784 0
376 -274 286 790 0
376 274 286 -790 0
376 -274 -286 -790 0
376 274 -286 790 0
376 -275 287 796 0
376 275 287 -796 0
376 -275 -287 -796 0
376 275 -287 796 0
376 -218 452 1593 0
376 218 452 -1593 0
376 -218 -452 -1593 0
376 218 -452 1593 0
376 -276 288 802 0
376 276 288 -802 0
376 -276 -288 -802 0
376 276 -288 802 0
376 -275 277 808 0
376 275 277 -808 0
376 -275 -277 -808 0
376 275 -277 808 0
376 -219 453 1626 0
376 219 453 -1626 0
376 -219 -453 -1626 0
376 219 -453 1626 0
376 -276 278 814 0
376 276 278 -814 0
376 -276 -278 -814 0
376 276 -278 814 0
376 -277 279 820 0
376 277 279 -820 0
376 -277 -279 -820 0
376 277 -279 820 0
376 -278 280 826 0
376 278 280 -826 0
376 -278 -280 -826 0
376 278 -280 826 0
376 -279 281 832 0
376 279 281 -832 0
376 -279 -281 -832 0
376 279 -281 832 0
376 -280 282 838 0
376 280 282 -838 0
376 -280 -282 -838 0
376 280 -282 838 0
376 -281 283 844 0
376 281 283 -844 0
376 -281 -283 -844 0
376 281 -283 844 0
376 -282 284 850 0
376 282 284 -850 0
376 -282 -284 -850 0
376 282 -284 850 0
376 -221 455 1700 0
376 221 455 -1700 0
376 -221 -455 -1700 0
376 221 -455 1700 0
376 -73 136 856 0
376 73 136 -856 0
376 -73 -136 -856 0
376 73 -136 856 0
376 -74 137 862 0
376 74 137 -862 0
376 -74 -137 -862 0
376 74 -137 862 0
376 -75 138 868 0
376 75 138 -868 0
376 -75 -138 -868 0
376 75 -138 868 0
376 -76 139 874 0
376 76 139 -874 0
376 -76 -139 -874 0
376 76 -139 874 0
376 -77 140 880 0
376 77 140 -880 0
376 -77 -140 -880 0
376 77 -140 880 0
376 -78 141 886 0
376 78 141 -886 0
376 -78 -141 -886 0
376 78 -141 886 0
376 -79 142 892 0
376 79 142 -892 0
376 -79 -142 -892 0
376 79 -142 892 0
376 -80 143 898 0
376 80 143 -898 0
376 -80 -143 -898 0
376 80 -143 898 0
376 -81 144 904 0
376 81 144 -904 0
376 -81 -144 -904 0
376 81 -144 904 0
376 -73 82 910 0
376 73 82 -910 0
376 -73 -82 -910 0
376 73 -82 910 0
376 -74 83 916 0
376 74 83 -916 0
376 -74 -83 -916 0
376 74 -83 916 0
376 -235 288 460 0
376 235 288 -460 0
376 -235 -288 -460 0
376 235 -288 460 0
376 -75 84 922 0
376 75 84 -922 0
376 -75 -84 -922 0
376 75 -84 922 0
376 -232 236 466 0
376 232 236 -466 0
376 -232 -236 -466 0
376 232 -236 466 0
376 -76 85 928 0
376 76 85 -928 0
376 -76 -85 -928 0
376 76 -85 928 0
376 -77 86 934 0
376 77 86 -934 0
376 -77 -86 -934 0
376 77 -86 934 0
376 -78 87 940 0
376 78 87 -940 0
376 -78 -87 -940 0
376 78 -87 940 0
376 -233 237 472 0
376 233 237 -472 0
376 -233 -237 -472 0
376 233 -237 472 0
376 -79 88 946 0
376 79 88 -946 0
376 -79 -88 -946 0
376 79 -88 946 0
376 -80 89 952 0
376 80 89 -952 0
376 -80 -89 -952 0
376 80 -89 952 0
376 -234 238 478 0
376 234 238 -478 0
376 -234 -238 -478 0
376 234 -238 478 0
376 -81 90 958 0
376 81 90 -958 0
376 -81 -90 -958 0
376 81 -90 958 0
376 -82 91 964 0
376 82 91 -964 0
376 -82 -91 -964 0
376 82 -91 964 0
376 -235 239 484 0
376 235 239 -484 0
376 -235 -239 -484 0
376 235 -239 484 0
376 -83 92 970 0
376 83 92 -970 0
376 -83 -92 -970 0
376 83 -92 970 0
376 -236 240 490 0
376 236 240 -490 0
376 -236 -240 -490 0
376 236 -240 490 0
376 -84 93 976 0
376 84 93 -976 0
376 -84 -93 -976 0
376 84 -93 976 0
376 -85 94 982 0
376 85 94 -982 0
376 -85 -94 -982 0
376 85 -94 982 0
376 -86 95 988 0
376 86 95 -988 0
376 -86 -95 -988 0
376 86 -95 988 0
376 -237 241 496 0
376 237 241 -496 0
376 -237 -241 -496 0
376 237 -241 496 0
376 -87 96 994 0
376 87 96 -994 0
376 -87 -96 -994 0
376 87 -96 994 0
376 -88 97 1000 0
376 88 97 -1000 0
376 -88 -97 -1000 0
376 88 -97 1000 0
376 -238 242 502 0
376 238 242 -502 0
376 -238 -242 -502 0
376 238 -242 502 0
376 -89 98 1006 0
376 89 98 -1006 0
376 -89 -98 -1006 0
376 89 -98 1006 0
376 -90 99 1012 0
376 90 99 -1012 0
376 -90 -99 -1012 0
376 90 -99 1012 0
376 -239 243 508 0
376 239 243 -508 0
376 -239 -243 -508 0
376 239 -243 508 0
376 -91 100 1018 0
376 91 100 -1018 0
376 -91 -100 -1018 0
376 91 -100 1018 0
376 -61 -73 1389 -1391 0
376 -61 73 1389 1391 0
376 61 -73 -1389 -1391 0
376 61 73 -1389 1391 0
376 -61 73 -1389 -1391 0
376 61 73 1389 -1391 0
376 -61 -73 -1389 1391 0
376 61 -73 1389 1391 0
376 -64 -66 1243 -1245 0
376 -64 66 1243 1245 0
376 64 -66 -1243 -1245 0
376 64 66 -1243 1245 0
376 -64 66 -1243 -1245 0
376 64 66 1243 -1245 0
376 -64 -66 -1243 1245 0
376 64 -66 1243 1245 0
376 -17 -20 1396 -1398 0
376 -17 20 1396 1398 0
376 17 -20 -1396 -1398 0
376 17 20 -1396 1398 0
376 -17 20 -1396 -1398 0
376 17 20 1396 -1398 0
376 -17 -20 -1396 1398 0
376 17 -20 1396 1398 0
376 -243 -244 619 -621 0
376 -243 244 619 621 0
376 243 -244 -619 -621 0
376 243 244 -619 621 0
376 -243 244 -619 -621 0
376 243 244 619 -621 0
376 -243 -244 -619 621 0
376 243 -244 619 621 0
376 -42 -44 1404 -1406 0
376 -42 44 1404 1406 0
376 42 -44 -1404 -1406 0
376 42 44 -1404 1406 0
376 -42 44 -1404 -1406 0
376 42 44 1404 -1406 0
376 -42 -44 -1404 1406 0
376 42 -44 1404 1406 0
376 47 -51 -63 -1238 0
376 47 -51 63 1238 0
376 -47 51 -63 -1238 0
376 -47 51 63 1238 0
376 -47 -51 63 -1238 0
376 47 51 63 -1238 0
376 -47 -51 -63 1238 0
376 47 51 -63 1238 0
376 -163 -169 1488 -1490 0
376 -163 169 1488 1490 0
376 163 -169 -1488 -1490 0
376 163 169 -1488 1490 0
376 -163 169 -1488 -1490 0
376 163 169 1488 -1490 0
376 -163 -169 -1488 1490 0
376 163 -169 1488 1490 0
376 -162 -163 1675 -1677 0
376 -162 163 1675 1677 0
376 162 -163 -1675 -1677 0
376 162 163 -1675 1677 0
376 -162 163 -1675 -1677 0
376 162 163 1675 -1677 0
376 -162 -163 -1675 1677 0
376 162 -163 1675 1677 0
376 -226 -228 512 -514 0
376 -226 228 512 514 0
376 226 -228 -512 -514 0
376 226 228 -512 514 0
376 -226 228 -512 -514 0
376 226 228 512 -514 0
376 -226 -228 -512 514 0
376 226 -228 512 514 0
376 12 -16 -28 -1028 0
376 12 -16 28 1028 0
376 -12 16 -28 -1028 0
376 -12 16 28 1028 0
376 -12 -16 28 -1028 0
376 12 16 28 -1028 0
376 -12 -16 -28 1028 0
376 12 16 -28 1028 0
376 46 -50 -62 -1232 0
376 46 -50 62 1232 0
376 -46 50 -62 -1232 0
376 -46 50 62 1232 0
376 -46 -50 62 -1232 0
376 46 50 62 -1232 0
376 -46 -50 -62 1232 0
376 46 50 -62 1232 0
376 -243 -245 614 -616 0
376 -243 245 614 616 0
376 243 -245 -614 -616 0
376 243 245 -614 616 0
376 -243 245 -614 -616 0
376 243 245 614 -616 0
376 -243 -245 -614 616 0
376 243 -245 614 616 0
376 -30 -31 1028 -1030 0
376 -30 31 1028 1030 0
376 30 -31 -1028 -1030 0
376 30 31 -1028 1030 0
376 -30 31 -1028 -1030 0
376 30 31 1028 -1030 0
376 -30 -31 -1028 1030 0
376 30 -31 1028 1030 0
376 -61 -63 1225 -1227 0
376 -61 63 1225 1227 0
376 61 -63 -1225 -1227 0
376 61 63 -1225 1227 0
376 -61 63 -1225 -1227 0
376 61 63 1225 -1227 0
376 -61 -63 -1225 1227 0
376 61 -63 1225 1227 0
376 -31 -32 1034 -1036 0
376 -31 32 1034 1036 0
376 31 -32 -1034 -1036 0
376 31 32 -1034 1036 0
376 -31 32 -1034 -1036 0
376 31 32 1034 -1036 0
376 -31 -32 -1034 1036 0
376 31 -32 1034 1036 0
376 155 -164 -226 -518 0
376 155 -164 226 518 0
376 -155 164 -226 -518 0
376 -155 164 226 518 0
376 -155 -164 226 -518 0
376 155 164 226 -518 0
376 -155 -164 -226 518 0
376 155 164 -226 518 0
376 13 -17 -29 -1034 0
376 13 -17 29 1034 0
376 -13 17 -29 -1034 0
376 -13 17 29 1034 0
376 -13 -17 29 -1034 0
376 13 17 29 -1034 0
376 -13 -17 -29 1034 0
376 13 17 -29 1034 0
376 -60 -62 1219 -1221 0
376 -60 62 1219 1221 0
376 60 -62 -1219 -1221 0
376 60 62 -1219 1221 0
376 -60 62 -1219 -1221 0
376 60 62 1219 -1221 0
376 -60 -62 -1219 1221 0
376 60 -62 1219 1221 0
376 186 -195 -257 -704 0
376 186 -195 257 704 0
376 -186 195 -257 -704 0
376 -186 195 257 704 0
376 -186 -195 257 -704 0
376 186 195 257 -704 0
376 -186 -195 -257 704 0
376 186 195 -257 704 0
376 -195 -198 1732 -1734 0
376 -195 198 1732 1734 0
376 195 -198 -1732 -1734 0
376 195 198 -1732 1734 0
376 -195 198 -1732 -1734 0
376 195 198 1732 -1734 0
376 -195 -198 -1732 1734 0
376 195 -198 1732 1734 0
376 -51 -53 1407 -1409 0
376 -51 53 1407 1409 0
376 51 -53 -1407 -1409 0
376 51 53 -1407 1409 0
376 -51 53 -1407 -1409 0
376 51 53 1407 -1409 0
376 -51 -53 -1407 1409 0
376 51 -53 1407 1409 0
376 -227 -229 518 -520 0
376 -227 229 518 520 0
376 227 -229 -518 -520 0
376 227 229 -518 520 0
376 -227 229 -518 -520 0
376 227 229 518 -520 0
376 -227 -229 -518 520 0
376 227 -229 518 520 0
376 -59 -61 1213 -1215 0
376 -59 61 1213 1215 0
376 59 -61 -1213 -1215 0
376 59 61 -1213 1215 0
376 -59 61 -1213 -1215 0
376 59 61 1213 -1215 0
376 -59 -61 -1213 1215 0
376 59 -61 1213 1215 0
376 170 -179 -241 -608 0
376 170 -179 241 608 0
376 -170 179 -241 -608 0
376 -170 179 241 608 0
376 -170 -179 241 -608 0
376 170 179 241 -608 0
376 -170 -179 -241 608 0
376 170 179 -241 608 0
376 -29 -33 1400 -1402 0
376 -29 33 1400 1402 0
376 29 -33 -1400 -1402 0
376 29 33 -1400 1402 0
376 -29 33 -1400 -1402 0
376 29 33 1400 -1402 0
376 -29 -33 -1400 1402 0
376 29 -33 1400 1402 0
376 -33 -34 1046 -1048 0
376 -33 34 1046 1048 0
376 33 -34 -1046 -1048 0
376 33 34 -1046 1048 0
376 -33 34 -1046 -1048 0
376 33 34 1046 -1048 0
376 -33 -34 -1046 1048 0
376 33 -34 1046 1048 0
376 -60 -61 1208 -1210 0
376 -60 61 1208 1210 0
376 60 -61 -1208 -1210 0
376 60 61 -1208 1210 0
376 -60 61 -1208 -1210 0
376 60 61 1208 -1210 0
376 -60 -61 -1208 1210 0
376 60 -61 1208 1210 0
376 -32 -33 1040 -1042 0
376 -32 33 1040 1042 0
376 32 -33 -1040 -1042 0
376 32 33 -1040 1042 0
376 -32 33 -1040 -1042 0
376 32 33 1040 -1042 0
376 -32 -33 -1040 1042 0
376 32 -33 1040 1042 0
376 14 -18 -30 -1040 0
376 14 -18 30 1040 0
376 -14 18 -30 -1040 0
376 -14 18 30 1040 0
376 -14 -18 30 -1040 0
376 14 18 30 -1040 0
376 -14 -18 -30 1040 0
376 14 18 -30 1040 0
376 156 -165 -227 -524 0
376 156 -165 227 524 0
376 -156 165 -227 -524 0
376 -156 165 227 524 0
376 -156 -165 227 -524 0
376 156 165 227 -524 0
376 -156 -165 -227 524 0
376 156 165 -227 524 0
376 42 -46 -58 -1208 0
376 42 -46 58 1208 0
376 -42 46 -58 -1208 0
376 -42 46 58 1208 0
376 -42 -46 58 -1208 0
376 42 46 58 -1208 0
376 -42 -46 -58 1208 0
376 42 46 -58 1208 0
376 15 -19 -31 -1046 0
376 15 -19 31 1046 0
376 -15 19 -31 -1046 0
376 -15 19 31 1046 0
376 -15 -19 31 -1046 0
376 15 19 31 -1046 0
376 -15 -19 -31 1046 0
376 15 19 -31 1046 0
376 -57 -59 1201 -1203 0
376 -57 59 1201 1203 0
376 57 -59 -1201 -1203 0
376 57 59 -1201 1203 0
376 -57 59 -1201 -1203 0
376 57 59 1201 -1203 0
376 -57 -59 -1201 1203 0
376 57 -59 1201 1203 0
376 -228 -230 524 -526 0
376 -228 230 524 526 0
376 228 -230 -524 -526 0
376 228 230 -524 526 0
376 -228 230 -524 -526 0
376 228 230 524 -526 0
376 -228 -230 -524 526 0
376 228 -230 524 526 0
376 16 -20 -32 -1052 0
376 16 -20 32 1052 0
376 -16 20 -32 -1052 0
376 -16 20 32 1052 0
376 -16 -20 32 -1052 0
376 16 20 32 -1052 0
376 -16 -20 -32 1052 0
376 16 20 -32 1052 0
376 -192 -194 1582 -1584 0
376 -192 194 1582 1584 0
376 192 -194 -1582 -1584 0
376 192 194 -1582 1584 0
376 -192 194 -1582 -1584 0
376 192 194 1582 -1584 0
376 -192 -194 -1582 1584 0
376 192 -194 1582 1584 0
376 -56 -58 1195 -1197 0
376 -56 58 1195 1197 0
376 56 -58 -1195 -1197 0
376 56 58 -1195 1197 0
376 -56 58 -1195 -1197 0
376 56 58 1195 -1197 0
376 -56 -58 -1195 1197 0
376 56 -58 1195 1197 0
376 -55 -57 1189 -1191 0
376 -55 57 1189 1191 0
376 55 -57 -1189 -1191 0
376 55 57 -1189 1191 0
376 -55 57 -1189 -1191 0
376 55 57 1189 -1191 0
376 -55 -57 -1189 1191 0
376 55 -57 1189 1191 0
376 -34 -35 1052 -1054 0
376 -34 35 1052 1054 0
376 34 -35 -1052 -1054 0
376 34 35 -1052 1054 0
376 -34 35 -1052 -1054 0
376 34 35 1052 -1054 0
376 -34 -35 -1052 1054 0
376 34 -35 1052 1054 0
376 -256 -257 697 -699 0
376 -256 257 697 699 0
376 256 -257 -697 -699 0
376 256 257 -697 699 0
376 -256 257 -697 -699 0
376 256 257 697 -699 0
376 -256 -257 -697 699 0
376 256 -257 697 699 0
376 -158 -159 1709 -1711 0
376 -158 159 1709 1711 0
376 158 -159 -1709 -1711 0
376 158 159 -1709 1711 0
376 -158 159 -1709 -1711 0
376 158 159 1709 -1711 0
376 -158 -159 -1709 1711 0
376 158 -159 1709 1711 0
376 -35 -36 1058 -1060 0
376 -35 36 1058 1060 0
376 35 -36 -1058 -1060 0
376 35 36 -1058 1060 0
376 -35 36 -1058 -1060 0
376 35 36 1058 -1060 0
376 -35 -36 -1058 1060 0
376 35 -36 1058 1060 0
376 157 -166 -228 -530 0
376 157 -166 228 530 0
376 -157 166 -228 -530 0
376 -157 166 228 530 0
376 -157 -166 228 -530 0
376 157 166 228 -530 0
376 -157 -166 -228 530 0
376 157 166 -228 530 0
376 17 -21 -33 -1058 0
376 17 -21 33 1058 0
376 -17 21 -33 -1058 0
376 -17 21 33 1058 0
376 -17 -21 33 -1058 0
376 17 21 33 -1058 0
376 -17 -21 -33 1058 0
376 17 21 -33 1058 0
376 38 -42 -54 -1184 0
376 38 -42 54 1184 0
376 -38 42 -54 -1184 0
376 -38 42 54 1184 0
376 -38 -42 54 -1184 0
376 38 42 54 -1184 0
376 -38 -42 -54 1184 0
376 38 42 -54 1184 0
376 -239 -241 590 -592 0
376 -239 241 590 592 0
376 239 -241 -590 -592 0
376 239 241 -590 592 0
376 -239 241 -590 -592 0
376 239 241 590 -592 0
376 -239 -241 -590 592 0
376 239 -241 590 592 0
376 -229 -231 530 -532 0
376 -229 231 530 532 0
376 229 -231 -530 -532 0
376 229 231 -530 532 0
376 -229 231 -530 -532 0
376 229 231 530 -532 0
376 -229 -231 -530 532 0
376 229 -231 530 532 0
376 37 -41 -53 -1178 0
376 37 -41 53 1178 0
376 -37 41 -53 -1178 0
376 -37 41 53 1178 0
376 -37 -41 53 -1178 0
376 37 41 53 -1178 0
376 -37 -41 -53 1178 0
376 37 41 -53 1178 0
376 -37 -38 1070 -1072 0
376 -37 38 1070 1072 0
376 37 -38 -1070 -1072 0
376 37 38 -1070 1072 0
376 -37 38 -1070 -1072 0
376 37 38 1070 -1072 0
376 -37 -38 -1070 1072 0
376 37 -38 1070 1072 0
376 -55 -56 1178 -1180 0
376 -55 56 1178 1180 0
376 55 -56 -1178 -1180 0
376 55 56 -1178 1180 0
376 -55 56 -1178 -1180 0
376 55 56 1178 -1180 0
376 -55 -56 -1178 1180 0
376 55 -56 1178 1180 0
376 -4 -57 865 -867 0
376 -4 57 865 867 0
376 4 -57 -865 -867 0
376 4 57 -865 867 0
376 -4 57 -865 -867 0
376 4 57 865 -867 0
376 -4 -57 -865 867 0
376 4 -57 865 867 0
376 18 -22 -34 -1064 0
376 18 -22 34 1064 0
376 -18 22 -34 -1064 0
376 -18 22 34 1064 0
376 -18 -22 34 -1064 0
376 18 22 34 -1064 0
376 -18 -22 -34 1064 0
376 18 22 -34 1064 0
376 -36 -37 1064 -1066 0
376 -36 37 1064 1066 0
376 36 -37 -1064 -1066 0
376 36 37 -1064 1066 0
376 -36 37 -1064 -1066 0
376 36 37 1064 -1066 0
376 -36 -37 -1064 1066 0
376 36 -37 1064 1066 0
376 158 -167 -229 -536 0
376 158 -167 229 536 0
376 -158 167 -229 -536 0
376 -158 167 229 536 0
376 -158 -167 229 -536 0
376 158 167 229 -536 0
376 -158 -167 -229 536 0
376 158 167 -229 536 0
376 36 -40 -52 -1172 0
376 36 -40 52 1172 0
376 -36 40 -52 -1172 0
376 -36 40 52 1172 0
376 -36 -40 52 -1172 0
376 36 40 52 -1172 0
376 -36 -40 -52 1172 0
376 36 40 -52 1172 0
376 19 -23 -35 -1070 0
376 19 -23 35 1070 0
376 -19 23 -35 -1070 0
376 -19 23 35 1070 0
376 -19 -23 35 -1070 0
376 19 23 35 -1070 0
376 -19 -23 -35 1070 0
376 19 23 -35 1070 0
376 3 -9 -11 -1395 0
376 3 -9 11 1395 0
376 -3 9 -11 -1395 0
376 -3 9 11 1395 0
376 -3 -9 11 -1395 0
376 3 9 11 -1395 0
376 -3 -9 -11 1395 0
376 3 9 -11 1395 0
376 -51 -53 1165 -1167 0
376 -51 53 1165 1167 0
376 51 -53 -1165 -1167 0
376 51 53 -1165 1167 0
376 -51 53 -1165 -1167 0
376 51 53 1165 -1167 0
376 -51 -53 -1165 1167 0
376 51 -53 1165 1167 0
376 166 -175 -237 -584 0
376 166 -175 237 584 0
376 -166 175 -237 -584 0
376 -166 175 237 584 0
376 -166 -175 237 -584 0
376 166 175 237 -584 0
376 -166 -175 -237 584 0
376 166 175 -237 584 0
376 -182 -183 1725 -1727 0
376 -182 183 1725 1727 0
376 182 -183 -1725 -1727 0
376 182 183 -1725 1727 0
376 -182 183 -1725 -1727 0
376 182 183 1725 -1727 0
376 -182 -183 -1725 1727 0
376 182 -183 1725 1727 0
376 -230 -232 536 -538 0
376 -230 232 536 538 0
376 230 -232 -536 -538 0
376 230 232 -536 538 0
376 -230 232 -536 -538 0
376 230 232 536 -538 0
376 -230 -232 -536 538 0
376 230 -232 536 538 0
376 -50 -52 1159 -1161 0
376 -50 52 1159 1161 0
376 50 -52 -1159 -1161 0
376 50 52 -1159 1161 0
376 -50 52 -1159 -1161 0
376 50 52 1159 -1161 0
376 -50 -52 -1159 1161 0
376 50 -52 1159 1161 0
376 20 -24 -36 -1076 0
376 20 -24 36 1076 0
376 -20 24 -36 -1076 0
376 -20 24 36 1076 0
376 -20 -24 36 -1076 0
376 20 24 36 -1076 0
376 -20 -24 -36 1076 0
376 20 24 -36 1076 0
376 -38 -39 1076 -1078 0
376 -38 39 1076 1078 0
376 38 -39 -1076 -1078 0
376 38 39 -1076 1078 0
376 -38 39 -1076 -1078 0
376 38 39 1076 -1078 0
376 -38 -39 -1076 1078 0
376 38 -39 1076 1078 0
376 -39 -40 1082 -1084 0
376 -39 40 1082 1084 0
376 39 -40 -1082 -1084 0
376 39 40 -1082 1084 0
376 -39 40 -1082 -1084 0
376 39 40 1082 -1084 0
376 -39 -40 -1082 1084 0
376 39 -40 1082 1084 0
376 -237 -239 578 -580 0
376 -237 239 578 580 0
376 237 -239 -578 -580 0
376 237 239 -578 580 0
376 -237 239 -578 -580 0
376 237 239 578 -580 0
376 -237 -239 -578 580 0
376 237 -239 578 580 0
376 159 -168 -230 -542 0
376 159 -168 230 542 0
376 -159 168 -230 -542 0
376 -159 168 230 542 0
376 -159 -168 230 -542 0
376 159 168 230 -542 0
376 -159 -168 -230 542 0
376 159 168 -230 542 0
376 21 -25 -37 -1082 0
376 21 -25 37 1082 0
376 -21 25 -37 -1082 0
376 -21 25 37 1082 0
376 -21 -25 37 -1082 0
376 21 25 37 -1082 0
376 -21 -25 -37 1082 0
376 21 25 -37 1082 0
376 -189 -191 1728 -1730 0
376 -189 191 1728 1730 0
376 189 -191 -1728 -1730 0
376 189 191 -1728 1730 0
376 -189 191 -1728 -1730 0
376 189 191 1728 -1730 0
376 -189 -191 -1728 1730 0
376 189 -191 1728 1730 0
376 -231 -233 542 -544 0
376 -231 233 542 544 0
376 231 -233 -542 -544 0
376 231 233 -542 544 0
376 -231 233 -542 -544 0
376 231 233 542 -544 0
376 -231 -233 -542 544 0
376 231 -233 542 544 0
376 22 -26 -38 -1088 0
376 22 -26 38 1088 0
376 -22 26 -38 -1088 0
376 -22 26 38 1088 0
376 -22 -26 38 -1088 0
376 22 26 38 -1088 0
376 -22 -26 -38 1088 0
376 22 26 -38 1088 0
376 2 -3 -56 -860 0
376 2 -3 56 860 0
376 -2 3 -56 -860 0
376 -2 3 56 860 0
376 -2 -3 56 -860 0
376 2 3 56 -860 0
376 -2 -3 -56 860 0
376 2 3 -56 860 0
376 -40 -41 1088 -1090 0
376 -40 41 1088 1090 0
376 40 -41 -1088 -1090 0
376 40 41 -1088 1090 0
376 -40 41 -1088 -1090 0
376 40 41 1088 -1090 0
376 -40 -41 -1088 1090 0
376 40 -41 1088 1090 0
376 -161 -162 1712 -1714 0
376 -161 162 1712 1714 0
376 161 -162 -1712 -1714 0
376 161 162 -1712 1714 0
376 -161 162 -1712 -1714 0
376 161 162 1712 -1714 0
376 -161 -162 -1712 1714 0
376 161 -162 1712 1714 0
376 -43 -44 1106 -1108 0
376 -43 44 1106 1108 0
376 43 -44 -1106 -1108 0
376 43 44 -1106 1108 0
376 -43 44 -1106 -1108 0
376 43 44 1106 -1108 0
376 -43 -44 -1106 1108 0
376 43 -44 1106 1108 0
376 -41 -42 1094 -1096 0
376 -41 42 1094 1096 0
376 41 -42 -1094 -1096 0
376 41 42 -1094 1096 0
376 -41 42 -1094 -1096 0
376 41 42 1094 -1096 0
376 -41 -42 -1094 1096 0
376 41 -42 1094 1096 0
376 32 -36 -48 -1148 0
376 32 -36 48 1148 0
376 -32 36 -48 -1148 0
376 -32 36 48 1148 0
376 -32 -36 48 -1148 0
376 32 36 48 -1148 0
376 -32 -36 -48 1148 0
376 32 36 -48 1148 0
376 164 -173 -235 -572 0
376 164 -173 235 572 0
376 -164 173 -235 -572 0
376 -164 173 235 572 0
376 -164 -173 235 -572 0
376 164 173 235 -572 0
376 -164 -173 -235 572 0
376 164 173 -235 572 0
376 160 -169 -231 -548 0
376 160 -169 231 548 0
376 -160 169 -231 -548 0
376 -160 169 231 548 0
376 -160 -169 231 -548 0
376 160 169 231 -548 0
376 -160 -169 -231 548 0
376 160 169 -231 548 0
376 -47 -49 1141 -1143 0
376 -47 49 1141 1143 0
376 47 -49 -1141 -1143 0
376 47 49 -1141 1143 0
376 -47 49 -1141 -1143 0
376 47 49 1141 -1143 0
376 -47 -49 -1141 1143 0
376 47 -49 1141 1143 0
376 23 -27 -39 -1094 0
376 23 -27 39 1094 0
376 -23 27 -39 -1094 0
376 -23 27 39 1094 0
376 -23 -27 39 -1094 0
376 23 27 39 -1094 0
376 -23 -27 -39 1094 0
376 23 27 -39 1094 0
376 -55 -59 1387 -1389 0
376 -55 59 1387 1389 0
376 55 -59 -1387 -1389 0
376 55 59 -1387 1389 0
376 -55 59 -1387 -1389 0
376 55 59 1387 -1389 0
376 -55 -59 -1387 1389 0
376 55 -59 1387 1389 0
376 30 -34 -46 -1136 0
376 30 -34 46 1136 0
376 -30 34 -46 -1136 0
376 -30 34 46 1136 0
376 -30 -34 46 -1136 0
376 30 34 46 -1136 0
376 -30 -34 -46 1136 0
376 30 34 -46 1136 0
376 -235 -237 566 -568 0
376 -235 237 566 568 0
376 235 -237 -566 -568 0
376 235 237 -566 568 0
376 -235 237 -566 -568 0
376 235 237 566 -568 0
376 -235 -237 -566 568 0
376 235 -237 566 568 0
376 -232 -234 548 -550 0
376 -232 234 548 550 0
376 232 -234 -548 -550 0
376 232 234 -548 550 0
376 -232 234 -548 -550 0
376 232 234 548 -550 0
376 -232 -234 -548 550 0
376 232 -234 548 550 0
376 -45 -47 1129 -1131 0
376 -45 47 1129 1131 0
376 45 -47 -1129 -1131 0
376 45 47 -1129 1131 0
376 -45 47 -1129 -1131 0
376 45 47 1129 -1131 0
376 -45 -47 -1129 1131 0
376 45 -47 1129 1131 0
376 -40 -42 1099 -1101 0
376 -40 42 1099 1101 0
376 40 -42 -1099 -1101 0
376 40 42 -1099 1101 0
376 -40 42 -1099 -1101 0
376 40 42 1099 -1101 0
376 -40 -42 -1099 1101 0
376 40 -42 1099 1101 0
376 25 -29 -41 -1106 0
376 25 -29 41 1106 0
376 -25 29 -41 -1106 0
376 -25 29 41 1106 0
376 -25 -29 41 -1106 0
376 25 29 41 -1106 0
376 -25 -29 -41 1106 0
376 25 29 -41 1106 0
376 -44 -46 1123 -1125 0
376 -44 46 1123 1125 0
376 44 -46 -1123 -1125 0
376 44 46 -1123 1125 0
376 -44 46 -1123 -1125 0
376 44 46 1123 -1125 0
376 -44 -46 -1123 1125 0
376 44 -46 1123 1125 0
376 2 -8 -10 -1373 0
376 2 -8 10 1373 0
376 -2 8 -10 -1373 0
376 -2 8 10 1373 0
376 -2 -8 10 -1373 0
376 2 8 10 -1373 0
376 -2 -8 -10 1373 0
376 2 8 -10 1373 0
376 -46 -50 1384 -1386 0
376 -46 50 1384 1386 0
376 46 -50 -1384 -1386 0
376 46 50 -1384 1386 0
376 -46 50 -1384 -1386 0
376 46 50 1384 -1386 0
376 -46 -50 -1384 1386 0
376 46 -50 1384 1386 0
376 -45 -46 1118 -1120 0
376 -45 46 1118 1120 0
376 45 -46 -1118 -1120 0
376 45 46 -1118 1120 0
376 -45 46 -1118 -1120 0
376 45 46 1118 -1120 0
376 -45 -46 -1118 1120 0
376 45 -46 1118 1120 0
376 -42 -44 1111 -1113 0
376 -42 44 1111 1113 0
376 42 -44 -1111 -1113 0
376 42 44 -1111 1113 0
376 -42 44 -1111 -1113 0
376 42 44 1111 -1113 0
376 -42 -44 -1111 1113 0
376 42 -44 1111 1113 0
376 161 -170 -232 -554 0
376 161 -170 232 554 0
376 -161 170 -232 -554 0
376 -161 170 232 554 0
376 -161 -170 232 -554 0
376 161 170 232 -554 0
376 -161 -170 -232 554 0
376 161 170 -232 554 0
376 27 -31 -43 -1118 0
376 27 -31 43 1118 0
376 -27 31 -43 -1118 0
376 -27 31 43 1118 0
376 -27 -31 43 -1118 0
376 27 31 43 -1118 0
376 -27 -31 -43 1118 0
376 27 31 -43 1118 0
376 -179 -181 1723 -1725 0
376 -179 181 1723 1725 0
376 179 -181 -1723 -1725 0
376 179 181 -1723 1725 0
376 -179 181 -1723 -1725 0
376 179 181 1723 -1725 0
376 -179 -181 -1723 1725 0
376 179 -181 1723 1725 0
376 -233 -235 554 -556 0
376 -233 235 554 556 0
376 233 -235 -554 -556 0
376 233 235 -554 556 0
376 -233 235 -554 -556 0
376 233 235 554 -556 0
376 -233 -235 -554 556 0
376 233 -235 554 556 0
376 -255 -257 686 -688 0
376 -255 257 686 688 0
376 255 -257 -686 -688 0
376 255 257 -686 688 0
376 -255 257 -686 -688 0
376 255 257 686 -688 0
376 -255 -257 -686 688 0
376 255 -257 686 688 0
376 -256 -258 692 -694 0
376 -256 258 692 694 0
376 256 -258 -692 -694 0
376 256 258 -692 694 0
376 -256 258 -692 -694 0
376 256 258 692 -694 0
376 -256 -258 -692 694 0
376 256 -258 692 694 0
376 -60 -72 860 -862 0
376 -60 72 860 862 0
376 60 -72 -860 -862 0
376 60 72 -860 862 0
376 -60 72 -860 -862 0
376 60 72 860 -862 0
376 -60 -72 -860 862 0
376 60 -72 860 862 0
376 -32 -34 1379 -1381 0
376 -32 34 1379 1381 0
376 32 -34 -1379 -1381 0
376 32 34 -1379 1381 0
376 -32 34 -1379 -1381 0
376 32 34 1379 -1381 0
376 -32 -34 -1379 1381 0
376 32 -34 1379 1381 0
376 -174 -175 1720 -1722 0
376 -174 175 1720 1722 0
376 174 -175 -1720 -1722 0
376 174 175 -1720 1722 0
376 -174 175 -1720 -1722 0
376 174 175 1720 -1722 0
376 -174 -175 -1720 1722 0
376 174 -175 1720 1722 0
376 162 -171 -233 -560 0
376 162 -171 233 560 0
376 -162 171 -233 -560 0
376 -162 171 233 560 0
376 -162 -171 233 -560 0
376 162 171 233 -560 0
376 -162 -171 -233 560 0
376 162 171 -233 560 0
376 -54 -56 1342 -1344 0
376 -54 56 1342 1344 0
376 54 -56 -1342 -1344 0
376 54 56 -1342 1344 0
376 -54 56 -1342 -1344 0
376 54 56 1342 -1344 0
376 -54 -56 -1342 1344 0
376 54 -56 1342 1344 0
376 -23 -25 1376 -1378 0
376 -23 25 1376 1378 0
376 23 -25 -1376 -1378 0
376 23 25 -1376 1378 0
376 -23 25 -1376 -1378 0
376 23 25 1376 -1378 0
376 -23 -25 -1376 1378 0
376 23 -25 1376 1378 0
376 184 -193 -255 -692 0
376 184 -193 255 692 0
376 -184 193 -255 -692 0
376 -184 193 255 692 0
376 -184 -193 255 -692 0
376 184 193 255 -692 0
376 -184 -193 -255 692 0
376 184 193 -255 692 0
376 -234 -236 560 -562 0
376 -234 236 560 562 0
376 234 -236 -560 -562 0
376 234 236 -560 562 0
376 -234 236 -560 -562 0
376 234 236 560 -562 0
376 -234 -236 -560 562 0
376 234 -236 560 562 0
376 163 -172 -234 -566 0
376 163 -172 234 566 0
376 -163 172 -234 -566 0
376 -163 172 234 566 0
376 -163 -172 234 -566 0
376 163 172 234 -566 0
376 -163 -172 -234 566 0
376 163 172 -234 566 0
376 -48 -49 1136 -1138 0
376 -48 49 1136 1138 0
376 48 -49 -1136 -1138 0
376 48 49 -1136 1138 0
376 -48 49 -1136 -1138 0
376 48 49 1136 -1138 0
376 -48 -49 -1136 1138 0
376 48 -49 1136 1138 0
376 -50 -51 1148 -1150 0
376 -50 51 1148 1150 0
376 50 -51 -1148 -1150 0
376 50 51 -1148 1150 0
376 -50 51 -1148 -1150 0
376 50 51 1148 -1150 0
376 -50 -51 -1148 1150 0
376 50 -51 1148 1150 0
376 -168 -170 1716 -1718 0
376 -168 170 1716 1718 0
376 168 -170 -1716 -1718 0
376 168 170 -1716 1718 0
376 -168 170 -1716 -1718 0
376 168 170 1716 -1718 0
376 -168 -170 -1716 1718 0
376 168 -170 1716 1718 0
376 -236 -238 572 -574 0
376 -236 238 572 574 0
376 236 -238 -572 -574 0
376 236 238 -572 574 0
376 -236 238 -572 -574 0
376 236 238 572 -574 0
376 -236 -238 -572 574 0
376 236 -238 572 574 0
376 -14 -16 1373 -1375 0
376 -14 16 1373 1375 0
376 14 -16 -1373 -1375 0
376 14 16 -1373 1375 0
376 -14 16 -1373 -1375 0
376 14 16 1373 -1375 0
376 -14 -16 -1373 1375 0
376 14 -16 1373 1375 0
376 -62 -74 1411 -1413 0
376 -62 74 1411 1413 0
376 62 -74 -1411 -1413 0
376 62 74 -1411 1413 0
376 -62 74 -1411 -1413 0
376 62 74 1411 -1413 0
376 -62 -74 -1411 1413 0
376 62 -74 1411 1413 0
376 -30 -33 1356 -1358 0
376 -30 33 1356 1358 0
376 30 -33 -1356 -1358 0
376 30 33 -1356 1358 0
376 -30 33 -1356 -1358 0
376 30 33 1356 -1358 0
376 -30 -33 -1356 1358 0
376 30 -33 1356 1358 0
376 -51 -52 1154 -1156 0
376 -51 52 1154 1156 0
376 51 -52 -1154 -1156 0
376 51 52 -1154 1156 0
376 -51 52 -1154 -1156 0
376 51 52 1154 -1156 0
376 -51 -52 -1154 1156 0
376 51 -52 1154 1156 0
376 165 -174 -236 -578 0
376 165 -174 236 578 0
376 -165 174 -236 -578 0
376 -165 174 236 578 0
376 -165 -174 236 -578 0
376 165 174 236 -578 0
376 -165 -174 -236 578 0
376 165 174 -236 578 0
376 33 -37 -49 -1154 0
376 33 -37 49 1154 0
376 -33 37 -49 -1154 0
376 -33 37 49 1154 0
376 -33 -37 49 -1154 0
376 33 37 49 -1154 0
376 -33 -37 -49 1154 0
376 33 37 -49 1154 0
376 -55 -59 853 -855 0
376 -55 59 853 855 0
376 55 -59 -853 -855 0
376 55 59 -853 855 0
376 -55 59 -853 -855 0
376 55 59 853 -855 0
376 -55 -59 -853 855 0
376 55 -59 853 855 0
376 -192 -193 1693 -1695 0
376 -192 193 1693 1695 0
376 192 -193 -1693 -1695 0
376 192 193 -1693 1695 0
376 -192 193 -1693 -1695 0
376 192 193 1693 -1695 0
376 -192 -193 -1693 1695 0
376 192 -193 1693 1695 0
376 -153 -155 1707 -1709 0
376 -153 155 1707 1709 0
376 153 -155 -1707 -1709 0
376 153 155 -1707 1709 0
376 -153 155 -1707 -1709 0
376 153 155 1707 -1709 0
376 -153 -155 -1707 1709 0
376 153 -155 1707 1709 0
376 -238 -240 584 -586 0
376 -238 240 584 586 0
376 238 -240 -584 -586 0
376 238 240 -584 586 0
376 -238 240 -584 -586 0
376 238 240 584 -586 0
376 -238 -240 -584 586 0
376 238 -240 584 586 0
376 -147 -149 1703 -1705 0
376 -147 149 1703 1705 0
376 147 -149 -1703 -1705 0
376 147 149 -1703 1705 0
376 -147 149 -1703 -1705 0
376 147 149 1703 -1705 0
376 -147 -149 -1703 1705 0
376 147 -149 1703 1705 0
376 -54 -55 1172 -1174 0
376 -54 55 1172 1174 0
376 54 -55 -1172 -1174 0
376 54 55 -1172 1174 0
376 -54 55 -1172 -1174 0
376 54 55 1172 -1174 0
376 -54 -55 -1172 1174 0
376 54 -55 1172 1174 0
376 183 -192 -254 -686 0
376 183 -192 254 686 0
376 -183 192 -254 -686 0
376 -183 192 254 686 0
376 -183 -192 254 -686 0
376 183 192 254 -686 0
376 -183 -192 -254 686 0
376 183 192 -254 686 0
376 146 -209 -223 -842 0
376 146 -209 223 842 0
376 -146 209 -223 -842 0
376 -146 209 223 842 0
376 -146 -209 223 -842 0
376 146 209 223 -842 0
376 -146 -209 -223 842 0
376 146 209 -223 842 0
376 167 -176 -238 -590 0
376 167 -176 238 590 0
376 -167 176 -238 -590 0
376 -167 176 238 590 0
376 -167 -176 238 -590 0
376 167 176 238 -590 0
376 -167 -176 -238 590 0
376 167 176 -238 590 0
376 -166 -171 1571 -1573 0
376 -166 171 1571 1573 0
376 166 -171 -1571 -1573 0
376 166 171 -1571 1573 0
376 -166 171 -1571 -1573 0
376 166 171 1571 -1573 0
376 -166 -171 -1571 1573 0
376 166 -171 1571 1573 0
376 -56 -57 1184 -1186 0
376 -56 57 1184 1186 0
376 56 -57 -1184 -1186 0
376 56 57 -1184 1186 0
376 -56 57 -1184 -1186 0
376 56 57 1184 -1186 0
376 -56 -57 -1184 1186 0
376 56 -57 1184 1186 0
376 168 -177 -239 -596 0
376 168 -177 239 596 0
376 -168 177 -239 -596 0
376 -168 177 239 596 0
376 -168 -177 239 -596 0
376 168 177 239 -596 0
376 -168 -177 -239 596 0
376 168 177 -239 596 0
376 -184 -185 1579 -1581 0
376 -184 185 1579 1581 0
376 184 -185 -1579 -1581 0
376 184 185 -1579 1581 0
376 -184 185 -1579 -1581 0
376 184 185 1579 -1581 0
376 -184 -185 -1579 1581 0
376 184 -185 1579 1581 0
376 -240 -242 596 -598 0
376 -240 242 596 598 0
376 240 -242 -596 -598 0
376 240 242 -596 598 0
376 -240 242 -596 -598 0
376 240 242 596 -598 0
376 -240 -242 -596 598 0
376 240 -242 596 598 0
376 -57 -60 1365 -1367 0
376 -57 60 1365 1367 0
376 57 -60 -1365 -1367 0
376 57 60 -1365 1367 0
376 -57 60 -1365 -1367 0
376 57 60 1365 -1367 0
376 -57 -60 -1365 1367 0
376 57 -60 1365 1367 0
376 -224 -228 847 -849 0
376 -224 228 847 849 0
376 224 -228 -847 -849 0
376 224 228 -847 849 0
376 -224 228 -847 -849 0
376 224 228 847 -849 0
376 -224 -228 -847 849 0
376 224 -228 847 849 0
376 169 -178 -240 -602 0
376 169 -178 240 602 0
376 -169 178 -240 -602 0
376 -169 178 240 602 0
376 -169 -178 240 -602 0
376 169 178 240 -602 0
376 -169 -178 -240 602 0
376 169 178 -240 602 0
376 -181 -182 1576 -1578 0
376 -181 182 1576 1578 0
376 181 -182 -1576 -1578 0
376 181 182 -1576 1578 0
376 -181 182 -1576 -1578 0
376 181 182 1576 -1578 0
376 -181 -182 -1576 1578 0
376 181 -182 1576 1578 0
376 -241 -243 602 -604 0
376 -241 243 602 604 0
376 241 -243 -602 -604 0
376 241 243 -602 604 0
376 -241 243 -602 -604 0
376 241 243 602 -604 0
376 -241 -243 -602 604 0
376 241 -243 602 604 0
376 -253 -254 679 -681 0
376 -253 254 679 681 0
376 253 -254 -679 -681 0
376 253 254 -679 681 0
376 -253 254 -679 -681 0
376 253 254 679 -681 0
376 -253 -254 -679 681 0
376 253 -254 679 681 0
376 -42 -43 1360 -1362 0
376 -42 43 1360 1362 0
376 42 -43 -1360 -1362 0
376 42 43 -1360 1362 0
376 -42 43 -1360 -1362 0
376 42 43 1360 -1362 0
376 -42 -43 -1360 1362 0
376 42 -43 1360 1362 0
376 -271 -272 788 -790 0
376 -271 272 788 790 0
376 271 -272 -788 -790 0
376 271 272 -788 790 0
376 -271 272 -788 -790 0
376 271 272 788 -790 0
376 -271 -272 -788 790 0
376 271 -272 788 790 0
376 -194 -197 1695 -1697 0
376 -194 197 1695 1697 0
376 194 -197 -1695 -1697 0
376 194 197 -1695 1697 0
376 -194 197 -1695 -1697 0
376 194 197 1695 -1697 0
376 -194 -197 -1695 1697 0
376 194 -197 1695 1697 0
376 -200 -204 1556 -1558 0
376 -200 204 1556 1558 0
376 200 -204 -1556 -1558 0
376 200 204 -1556 1558 0
376 -200 204 -1556 -1558 0
376 200 204 1556 -1558 0
376 -200 -204 -1556 1558 0
376 200 -204 1556 1558 0
376 200 -209 -218 -788 0
376 200 -209 218 788 0
376 -200 209 -218 -788 0
376 -200 209 218 788 0
376 -200 -209 218 -788 0
376 200 209 218 -788 0
376 -200 -209 -218 788 0
376 200 209 -218 788 0
376 -242 -244 608 -610 0
376 -242 244 608 610 0
376 242 -244 -608 -610 0
376 242 244 -608 610 0
376 -242 244 -608 -610 0
376 242 244 608 -610 0
376 -242 -244 -608 610 0
376 242 -244 608 610 0
376 -152 -157 1565 -1567 0
376 -152 157 1565 1567 0
376 152 -157 -1565 -1567 0
376 152 157 -1565 1567 0
376 -152 157 -1565 -1567 0
376 152 157 1565 -1567 0
376 -152 -157 -1565 1567 0
376 152 -157 1565 1567 0
376 -183 -187 1687 -1689 0
376 -183 187 1687 1689 0
376 183 -187 -1687 -1689 0
376 183 187 -1687 1689 0
376 -183 187 -1687 -1689 0
376 183 187 1687 -1689 0
376 -183 -187 -1687 1689 0
376 183 -187 1687 1689 0
376 171 -180 -242 -614 0
376 171 -180 242 614 0
376 -171 180 -242 -614 0
376 -171 180 242 614 0
376 -171 -180 242 -614 0
376 171 180 242 -614 0
376 -171 -180 -242 614 0
376 171 180 -242 614 0
376 -190 -191 1691 -1693 0
376 -190 191 1691 1693 0
376 190 -191 -1691 -1693 0
376 190 191 -1691 1693 0
376 -190 191 -1691 -1693 0
376 190 191 1691 -1693 0
376 -190 -191 -1691 1693 0
376 190 -191 1691 1693 0
376 -167 -169 1679 -1681 0
376 -167 169 1679 1681 0
376 167 -169 -1679 -1681 0
376 167 169 -1679 1681 0
376 -167 169 -1679 -1681 0
376 167 169 1679 -1681 0
376 -167 -169 -1679 1681 0
376 167 -169 1679 1681 0
376 -159 -161 1568 -1570 0
376 -159 161 1568 1570 0
376 159 -161 -1568 -1570 0
376 159 161 -1568 1570 0
376 -159 161 -1568 -1570 0
376 159 161 1568 -1570 0
376 -159 -161 -1568 1570 0
376 159 -161 1568 1570 0
376 -64 -65 1232 -1234 0
376 -64 65 1232 1234 0
376 64 -65 -1232 -1234 0
376 64 65 -1232 1234 0
376 -64 65 -1232 -1234 0
376 64 65 1232 -1234 0
376 -64 -65 -1232 1234 0
376 64 -65 1232 1234 0
376 -65 -66 1238 -1240 0
376 -65 66 1238 1240 0
376 65 -66 -1238 -1240 0
376 65 66 -1238 1240 0
376 -65 66 -1238 -1240 0
376 65 66 1238 -1240 0
376 -65 -66 -1238 1240 0
376 65 -66 1238 1240 0
376 -15 -16 1351 -1353 0
376 -15 16 1351 1353 0
376 15 -16 -1351 -1353 0
376 15 16 -1351 1353 0
376 -15 16 -1351 -1353 0
376 15 16 1351 -1353 0
376 -15 -16 -1351 1353 0
376 15 -16 1351 1353 0
376 -217 -270 781 -783 0
376 -217 270 781 783 0
376 217 -270 -781 -783 0
376 217 270 -781 783 0
376 -217 270 -781 -783 0
376 217 270 781 -783 0
376 -217 -270 -781 783 0
376 217 -270 781 783 0
376 -227 -280 842 -844 0
376 -227 280 842 844 0
376 227 -280 -842 -844 0
376 227 280 -842 844 0
376 -227 280 -842 -844 0
376 227 280 842 -844 0
376 -227 -280 -842 844 0
376 227 -280 842 844 0
376 1 -10 -19 -1250 0
376 1 -10 19 1250 0
376 -1 10 -19 -1250 0
376 -1 10 19 1250 0
376 -1 -10 19 -1250 0
376 1 10 19 -1250 0
376 -1 -10 -19 1250 0
376 1 10 -19 1250 0
376 173 -182 -244 -626 0
376 173 -182 244 626 0
376 -173 182 -244 -626 0
376 -173 182 244 626 0
376 -173 -182 244 -626 0
376 173 182 244 -626 0
376 -173 -182 -244 626 0
376 173 182 -244 626 0
376 -28 -37 1250 -1252 0
376 -28 37 1250 1252 0
376 28 -37 -1250 -1252 0
376 28 37 -1250 1252 0
376 -28 37 -1250 -1252 0
376 28 37 1250 -1252 0
376 -28 -37 -1250 1252 0
376 28 -37 1250 1252 0
376 -46 -55 1252 -1254 0
376 -46 55 1252 1254 0
376 46 -55 -1252 -1254 0
376 46 55 -1252 1254 0
376 -46 55 -1252 -1254 0
376 46 55 1252 -1254 0
376 -46 -55 -1252 1254 0
376 46 -55 1252 1254 0
376 -253 -255 674 -676 0
376 -253 255 674 676 0
376 253 -255 -674 -676 0
376 253 255 -674 676 0
376 -253 255 -674 -676 0
376 253 255 674 -676 0
376 -253 -255 -674 676 0
376 253 -255 674 676 0
376 -178 -181 1684 -1686 0
376 -178 181 1684 1686 0
376 178 -181 -1684 -1686 0
376 178 181 -1684 1686 0
376 -178 181 -1684 -1686 0
376 178 181 1684 -1686 0
376 -178 -181 -1684 1686 0
376 178 -181 1684 1686 0
376 -20 -29 1257 -1259 0
376 -20 29 1257 1259 0
376 20 -29 -1257 -1259 0
376 20 29 -1257 1259 0
376 -20 29 -1257 -1259 0
376 20 29 1257 -1259 0
376 -20 -29 -1257 1259 0
376 20 -29 1257 1259 0
376 -47 -56 1260 -1262 0
376 -47 56 1260 1262 0
376 47 -56 -1260 -1262 0
376 47 56 -1260 1262 0
376 -47 56 -1260 -1262 0
376 47 56 1260 -1262 0
376 -47 -56 -1260 1262 0
376 47 -56 1260 1262 0
376 -30 -39 1266 -1268 0
376 -30 39 1266 1268 0
376 30 -39 -1266 -1268 0
376 30 39 -1266 1268 0
376 -30 39 -1266 -1268 0
376 30 39 1266 -1268 0
376 -30 -39 -1266 1268 0
376 30 -39 1266 1268 0
376 -246 -248 632 -634 0
376 -246 248 632 634 0
376 246 -248 -632 -634 0
376 246 248 -632 634 0
376 -246 248 -632 -634 0
376 246 248 632 -634 0
376 -246 -248 -632 634 0
376 246 -248 632 634 0
376 -59 -60 1344 -1346 0
376 -59 60 1344 1346 0
376 59 -60 -1344 -1346 0
376 59 60 -1344 1346 0
376 -59 60 -1344 -1346 0
376 59 60 1344 -1346 0
376 -59 -60 -1344 1346 0
376 59 -60 1344 1346 0
376 -208 -209 1560 -1562 0
376 -208 209 1560 1562 0
376 208 -209 -1560 -1562 0
376 208 209 -1560 1562 0
376 -208 209 -1560 -1562 0
376 208 209 1560 -1562 0
376 -208 -209 -1560 1562 0
376 208 -209 1560 1562 0
376 -31 -40 1274 -1276 0
376 -31 40 1274 1276 0
376 31 -40 -1274 -1276 0
376 31 40 -1274 1276 0
376 -31 40 -1274 -1276 0
376 31 40 1274 -1276 0
376 -31 -40 -1274 1276 0
376 31 -40 1274 1276 0
376 -49 -58 1276 -1278 0
376 -49 58 1276 1278 0
376 49 -58 -1276 -1278 0
376 49 58 -1276 1278 0
376 -49 58 -1276 -1278 0
376 49 58 1276 -1278 0
376 -49 -58 -1276 1278 0
376 49 -58 1276 1278 0
376 -251 -253 662 -664 0
376 -251 253 662 664 0
376 251 -253 -662 -664 0
376 251 253 -662 664 0
376 -251 253 -662 -664 0
376 251 253 662 -664 0
376 -251 -253 -662 664 0
376 251 -253 662 664 0
376 -32 -33 1332 -1334 0
376 -32 33 1332 1334 0
376 32 -33 -1332 -1334 0
376 32 33 -1332 1334 0
376 -32 33 -1332 -1334 0
376 32 33 1332 -1334 0
376 -32 -33 -1332 1334 0
376 32 -33 1332 1334 0
376 -182 -183 1547 -1549 0
376 -182 183 1547 1549 0
376 182 -183 -1547 -1549 0
376 182 183 -1547 1549 0
376 -182 183 -1547 -1549 0
376 182 183 1547 -1549 0
376 -182 -183 -1547 1549 0
376 182 -183 1547 1549 0
376 -32 -41 1282 -1284 0
376 -32 41 1282 1284 0
376 32 -41 -1282 -1284 0
376 32 41 -1282 1284 0
376 -32 41 -1282 -1284 0
376 32 41 1282 -1284 0
376 -32 -41 -1282 1284 0
376 32 -41 1282 1284 0
376 5 -14 -23 -1282 0
376 5 -14 23 1282 0
376 -5 14 -23 -1282 0
376 -5 14 23 1282 0
376 -5 -14 23 -1282 0
376 5 14 23 -1282 0
376 -5 -14 -23 1282 0
376 5 14 -23 1282 0
376 176 -185 -247 -644 0
376 176 -185 247 644 0
376 -176 185 -247 -644 0
376 -176 185 247 644 0
376 -176 -185 247 -644 0
376 176 185 247 -644 0
376 -176 -185 -247 644 0
376 176 185 -247 644 0
376 -50 -59 1284 -1286 0
376 -50 59 1284 1286 0
376 50 -59 -1284 -1286 0
376 50 59 -1284 1286 0
376 -50 59 -1284 -1286 0
376 50 59 1284 -1286 0
376 -50 -59 -1284 1286 0
376 50 -59 1284 1286 0
376 -180 -183 1523 -1525 0
376 -180 183 1523 1525 0
376 180 -183 -1523 -1525 0
376 180 183 -1523 1525 0
376 -180 183 -1523 -1525 0
376 180 183 1523 -1525 0
376 -180 -183 -1523 1525 0
376 180 -183 1523 1525 0
376 -248 -250 644 -646 0
376 -248 250 644 646 0
376 248 -250 -644 -646 0
376 248 250 -644 646 0
376 -248 250 -644 -646 0
376 248 250 644 -646 0
376 -248 -250 -644 646 0
376 248 -250 644 646 0
376 11 -15 -27 -1022 0
376 11 -15 27 1022 0
376 -11 15 -27 -1022 0
376 -11 15 27 1022 0
376 -11 -15 27 -1022 0
376 11 15 27 -1022 0
376 -11 -15 -27 1022 0
376 11 15 -27 1022 0
376 154 -163 -225 -512 0
376 154 -163 225 512 0
376 -154 163 -225 -512 0
376 -154 163 225 512 0
376 -154 -163 225 -512 0
376 154 163 225 -512 0
376 -154 -163 -225 512 0
376 154 163 -225 512 0
376 -24 -33 1289 -1291 0
376 -24 33 1289 1291 0
376 24 -33 -1289 -1291 0
376 24 33 -1289 1291 0
376 -24 33 -1289 -1291 0
376 24 33 1289 -1291 0
376 -24 -33 -1289 1291 0
376 24 -33 1289 1291 0
376 -269 -271 770 -772 0
376 -269 271 770 772 0
376 269 -271 -770 -772 0
376 269 271 -770 772 0
376 -269 271 -770 -772 0
376 269 271 770 -772 0
376 -269 -271 -770 772 0
376 269 -271 770 772 0
376 -28 -29 1016 -1018 0
376 -28 29 1016 1018 0
376 28 -29 -1016 -1018 0
376 28 29 -1016 1018 0
376 -28 29 -1016 -1018 0
376 28 29 1016 -1018 0
376 -28 -29 -1016 1018 0
376 28 -29 1016 1018 0
376 -51 -60 1292 -1294 0
376 -51 60 1292 1294 0
376 51 -60 -1292 -1294 0
376 51 60 -1292 1294 0
376 -51 60 -1292 -1294 0
376 51 60 1292 -1294 0
376 -51 -60 -1292 1294 0
376 51 -60 1292 1294 0
376 -47 -50 1339 -1341 0
376 -47 50 1339 1341 0
376 47 -50 -1339 -1341 0
376 47 50 -1339 1341 0
376 -47 50 -1339 -1341 0
376 47 50 1339 -1341 0
376 -47 -50 -1339 1341 0
376 47 -50 1339 1341 0
376 -166 -168 1640 -1642 0
376 -166 168 1640 1642 0
376 166 -168 -1640 -1642 0
376 166 168 -1640 1642 0
376 -166 168 -1640 -1642 0
376 166 168 1640 -1642 0
376 -166 -168 -1640 1642 0
376 166 -168 1640 1642 0
376 -225 -278 830 -832 0
376 -225 278 830 832 0
376 225 -278 -830 -832 0
376 225 278 -830 832 0
376 -225 278 -830 -832 0
376 225 278 830 -832 0
376 -225 -278 -830 832 0
376 225 -278 830 832 0
376 -13 -14 1297 -1299 0
376 -13 14 1297 1299 0
376 13 -14 -1297 -1299 0
376 13 14 -1297 1299 0
376 -13 14 -1297 -1299 0
376 13 14 1297 -1299 0
376 -13 -14 -1297 1299 0
376 13 -14 1297 1299 0
376 -25 -27 1009 -1011 0
376 -25 27 1009 1011 0
376 25 -27 -1009 -1011 0
376 25 27 -1009 1011 0
376 -25 27 -1009 -1011 0
376 25 27 1009 -1011 0
376 -25 -27 -1009 1011 0
376 25 -27 1009 1011 0
376 -23 -26 1302 -1304 0
376 -23 26 1302 1304 0
376 23 -26 -1302 -1304 0
376 23 26 -1302 1304 0
376 -23 26 -1302 -1304 0
376 23 26 1302 -1304 0
376 -23 -26 -1302 1304 0
376 23 -26 1302 1304 0
376 -17 -19 1299 -1301 0
376 -17 19 1299 1301 0
376 17 -19 -1299 -1301 0
376 17 19 -1299 1301 0
376 -17 19 -1299 -1301 0
376 17 19 1299 -1301 0
376 -17 -19 -1299 1301 0
376 17 -19 1299 1301 0
376 -269 -270 775 -777 0
376 -269 270 775 777 0
376 269 -270 -775 -777 0
376 269 270 -775 777 0
376 -269 270 -775 -777 0
376 269 270 775 -777 0
376 -269 -270 -775 777 0
376 269 -270 775 777 0
376 -26 -27 1004 -1006 0
376 -26 27 1004 1006 0
376 26 -27 -1004 -1006 0
376 26 27 -1004 1006 0
376 -26 27 -1004 -1006 0
376 26 27 1004 -1006 0
376 -26 -27 -1004 1006 0
376 26 -27 1004 1006 0
376 -32 -35 1306 -1308 0
376 -32 35 1306 1308 0
376 32 -35 -1306 -1308 0
376 32 35 -1306 1308 0
376 -32 35 -1306 -1308 0
376 32 35 1306 -1308 0
376 -32 -35 -1306 1308 0
376 32 -35 1306 1308 0
376 -191 -193 1551 -1553 0
376 -191 193 1551 1553 0
376 191 -193 -1551 -1553 0
376 191 193 -1551 1553 0
376 -191 193 -1551 -1553 0
376 191 193 1551 -1553 0
376 -191 -193 -1551 1553 0
376 191 -193 1551 1553 0
376 -37 -40 1308 -1310 0
376 -37 40 1308 1310 0
376 37 -40 -1308 -1310 0
376 37 40 -1308 1310 0
376 -37 40 -1308 -1310 0
376 37 40 1308 -1310 0
376 -37 -40 -1308 1310 0
376 37 -40 1308 1310 0
376 8 -12 -24 -1004 0
376 8 -12 24 1004 0
376 -8 12 -24 -1004 0
376 -8 12 24 1004 0
376 -8 -12 24 -1004 0
376 8 12 24 -1004 0
376 -8 -12 -24 1004 0
376 8 12 -24 1004 0
376 -41 -44 1310 -1312 0
376 -41 44 1310 1312 0
376 41 -44 -1310 -1312 0
376 41 44 -1310 1312 0
376 -41 44 -1310 -1312 0
376 41 44 1310 -1312 0
376 -41 -44 -1310 1312 0
376 41 -44 1310 1312 0
376 -41 -42 1336 -1338 0
376 -41 42 1336 1338 0
376 41 -42 -1336 -1338 0
376 41 42 -1336 1338 0
376 -41 42 -1336 -1338 0
376 41 42 1336 -1338 0
376 -41 -42 -1336 1338 0
376 41 -42 1336 1338 0
376 7 -11 -23 -998 0
376 7 -11 23 998 0
376 -7 11 -23 -998 0
376 -7 11 23 998 0
376 -7 -11 23 -998 0
376 7 11 23 -998 0
376 -7 -11 -23 998 0
376 7 11 -23 998 0
376 -49 -50 1313 -1315 0
376 -49 50 1313 1315 0
376 49 -50 -1313 -1315 0
376 49 50 -1313 1315 0
376 -49 50 -1313 -1315 0
376 49 50 1313 -1315 0
376 -49 -50 -1313 1315 0
376 49 -50 1313 1315 0
376 -250 -252 656 -658 0
376 -250 252 656 658 0
376 250 -252 -656 -658 0
376 250 252 -656 658 0
376 -250 252 -656 -658 0
376 250 252 656 -658 0
376 -250 -252 -656 658 0
376 250 -252 656 658 0
376 -59 -62 1318 -1320 0
376 -59 62 1318 1320 0
376 59 -62 -1318 -1320 0
376 59 62 -1318 1320 0
376 -59 62 -1318 -1320 0
376 59 62 1318 -1320 0
376 -59 -62 -1318 1320 0
376 59 -62 1318 1320 0
376 -164 -165 1539 -1541 0
376 -164 165 1539 1541 0
376 164 -165 -1539 -1541 0
376 164 165 -1539 1541 0
376 -164 165 -1539 -1541 0
376 164 165 1539 -1541 0
376 -164 -165 -1539 1541 0
376 164 -165 1539 1541 0
376 -158 -159 1671 -1673 0
376 -158 159 1671 1673 0
376 158 -159 -1671 -1673 0
376 158 159 -1671 1673 0
376 -158 159 -1671 -1673 0
376 158 159 1671 -1673 0
376 -158 -159 -1671 1673 0
376 158 -159 1671 1673 0
376 -222 -226 835 -837 0
376 -222 226 835 837 0
376 222 -226 -835 -837 0
376 222 226 -835 837 0
376 -222 226 -835 -837 0
376 222 226 835 -837 0
376 -222 -226 -835 837 0
376 222 -226 835 837 0
376 6 -10 -22 -992 0
376 6 -10 22 992 0
376 -6 10 -22 -992 0
376 -6 10 22 992 0
376 -6 -10 22 -992 0
376 6 10 22 -992 0
376 -6 -10 -22 992 0
376 6 10 -22 992 0
376 -223 -225 494 -496 0
376 -223 225 494 496 0
376 223 -225 -494 -496 0
376 223 225 -494 496 0
376 -223 225 -494 -496 0
376 223 225 494 -496 0
376 -223 -225 -494 496 0
376 223 -225 494 496 0
376 -14 -15 1324 -1326 0
376 -14 15 1324 1326 0
376 14 -15 -1324 -1326 0
376 14 15 -1324 1326 0
376 -14 15 -1324 -1326 0
376 14 15 1324 -1326 0
376 -14 -15 -1324 1326 0
376 14 -15 1324 1326 0
376 5 -9 -21 -986 0
376 5 -9 21 986 0
376 -5 9 -21 -986 0
376 -5 9 21 986 0
376 -5 -9 21 -986 0
376 5 9 21 -986 0
376 -5 -9 -21 986 0
376 5 9 -21 986 0
376 151 -160 -222 -494 0
376 151 -160 222 494 0
376 -151 160 -222 -494 0
376 -151 160 222 494 0
376 -151 -160 222 -494 0
376 151 160 222 -494 0
376 -151 -160 -222 494 0
376 151 160 -222 494 0
376 -18 -20 1326 -1328 0
376 -18 20 1326 1328 0
376 18 -20 -1326 -1328 0
376 18 20 -1326 1328 0
376 -18 20 -1326 -1328 0
376 18 20 1326 -1328 0
376 -18 -20 -1326 1328 0
376 18 -20 1326 1328 0
376 -252 -254 668 -670 0
376 -252 254 668 670 0
376 252 -254 -668 -670 0
376 252 254 -668 670 0
376 -252 254 -668 -670 0
376 252 254 668 -670 0
376 -252 -254 -668 670 0
376 252 -254 668 670 0
376 -20 -22 979 -981 0
376 -20 22 979 981 0
376 20 -22 -979 -981 0
376 20 22 -979 981 0
376 -20 22 -979 -981 0
376 20 22 979 -981 0
376 -20 -22 -979 981 0
376 20 -22 979 981 0
376 -173 -174 1543 -1545 0
376 -173 174 1543 1545 0
376 173 -174 -1543 -1545 0
376 173 174 -1543 1545 0
376 -173 174 -1543 -1545 0
376 173 174 1543 -1545 0
376 -173 -174 -1543 1545 0
376 173 -174 1543 1545 0
376 -27 -29 1330 -1332 0
376 -27 29 1330 1332 0
376 27 -29 -1330 -1332 0
376 27 29 -1330 1332 0
376 -27 29 -1330 -1332 0
376 27 29 1330 -1332 0
376 -27 -29 -1330 1332 0
376 27 -29 1330 1332 0
376 -36 -38 1334 -1336 0
376 -36 38 1334 1336 0
376 36 -38 -1334 -1336 0
376 36 38 -1334 1336 0
376 -36 38 -1334 -1336 0
376 36 38 1334 -1336 0
376 -36 -38 -1334 1336 0
376 36 -38 1334 1336 0
376 196 -205 -267 -764 0
376 196 -205 267 764 0
376 -196 205 -267 -764 0
376 -196 205 267 764 0
376 -196 -205 267 -764 0
376 196 205 267 -764 0
376 -196 -205 -267 764 0
376 196 205 -267 764 0
376 181 -190 -252 -674 0
376 181 -190 252 674 0
376 -181 190 -252 -674 0
376 -181 190 252 674 0
376 -181 -190 252 -674 0
376 181 190 252 -674 0
376 -181 -190 -252 674 0
376 181 190 -252 674 0
376 -63 -74 1346 -1348 0
376 -63 74 1346 1348 0
376 63 -74 -1346 -1348 0
376 63 74 -1346 1348 0
376 -63 74 -1346 -1348 0
376 63 74 1346 -1348 0
376 -63 -74 -1346 1348 0
376 63 -74 1346 1348 0
376 3 -7 -19 -974 0
376 3 -7 19 974 0
376 -3 7 -19 -974 0
376 -3 7 19 974 0
376 -3 -7 19 -974 0
376 3 7 19 -974 0
376 -3 -7 -19 974 0
376 3 7 -19 974 0
376 -153 -154 1667 -1669 0
376 -153 154 1667 1669 0
376 153 -154 -1667 -1669 0
376 153 154 -1667 1669 0
376 -153 154 -1667 -1669 0
376 153 154 1667 -1669 0
376 -153 -154 -1667 1669 0
376 153 -154 1667 1669 0
376 150 -159 -221 -488 0
376 150 -159 221 488 0
376 -150 159 -221 -488 0
376 -150 159 221 488 0
376 -150 -159 221 -488 0
376 150 159 221 -488 0
376 -150 -159 -221 488 0
376 150 159 -221 488 0
376 148 -149 -151 -1535 0
376 148 -149 151 1535 0
376 -148 149 -151 -1535 0
376 -148 149 151 1535 0
376 -148 -149 151 -1535 0
376 148 149 151 -1535 0
376 -148 -149 -151 1535 0
376 148 149 -151 1535 0
376 -20 -21 968 -970 0
376 -20 21 968 970 0
376 20 -21 -968 -970 0
376 20 21 -968 970 0
376 -20 21 -968 -970 0
376 20 21 968 -970 0
376 -20 -21 -968 970 0
376 20 -21 968 970 0
376 -24 -25 1354 -1356 0
376 -24 25 1354 1356 0
376 24 -25 -1354 -1356 0
376 24 25 -1354 1356 0
376 -24 25 -1354 -1356 0
376 24 25 1354 -1356 0
376 -24 -25 -1354 1356 0
376 24 -25 1354 1356 0
376 145 -146 -147 -1663 0
376 145 -146 147 1663 0
376 -145 146 -147 -1663 0
376 -145 146 147 1663 0
376 -145 -146 147 -1663 0
376 145 146 147 -1663 0
376 -145 -146 -147 1663 0
376 145 146 -147 1663 0
376 -34 -39 1358 -1360 0
376 -34 39 1358 1360 0
376 34 -39 -1358 -1360 0
376 34 39 -1358 1360 0
376 -34 39 -1358 -1360 0
376 34 39 1358 -1360 0
376 -34 -39 -1358 1360 0
376 34 -39 1358 1360 0
376 -221 -223 482 -484 0
376 -221 223 482 484 0
376 221 -223 -482 -484 0
376 221 223 -482 484 0
376 -221 223 -482 -484 0
376 221 223 482 -484 0
376 -221 -223 -482 484 0
376 221 -223 482 484 0
376 -48 -51 1362 -1364 0
376 -48 51 1362 1364 0
376 48 -51 -1362 -1364 0
376 48 51 -1362 1364 0
376 -48 51 -1362 -1364 0
376 48 51 1362 -1364 0
376 -48 -51 -1362 1364 0
376 48 -51 1362 1364 0
376 180 -189 -251 -668 0
376 180 -189 251 668 0
376 -180 189 -251 -668 0
376 -180 189 251 668 0
376 -180 -189 251 -668 0
376 180 189 251 -668 0
376 -180 -189 -251 668 0
376 180 189 -251 668 0
376 -61 -75 1367 -1369 0
376 -61 75 1367 1369 0
376 61 -75 -1367 -1369 0
376 61 75 -1367 1369 0
376 -61 75 -1367 -1369 0
376 61 75 1367 -1369 0
376 -61 -75 -1367 1369 0
376 61 -75 1367 1369 0
376 -156 -157 1535 -1537 0
376 -156 157 1535 1537 0
376 156 -157 -1535 -1537 0
376 156 157 -1535 1537 0
376 -156 157 -1535 -1537 0
376 156 157 1535 -1537 0
376 -156 -157 -1535 1537 0
376 156 -157 1535 1537 0
376 -23 -24 1328 -1330 0
376 -23 24 1328 1330 0
376 23 -24 -1328 -1330 0
376 23 24 -1328 1330 0
376 -23 24 -1328 -1330 0
376 23 24 1328 -1330 0
376 -23 -24 -1328 1330 0
376 23 -24 1328 1330 0
376 -41 -43 1382 -1384 0
376 -41 43 1382 1384 0
376 41 -43 -1382 -1384 0
376 41 43 -1382 1384 0
376 -41 43 -1382 -1384 0
376 41 43 1382 -1384 0
376 -41 -43 -1382 1384 0
376 41 -43 1382 1384 0
376 -19 -72 956 -958 0
376 -19 72 956 958 0
376 19 -72 -956 -958 0
376 19 72 -956 958 0
376 -19 72 -956 -958 0
376 19 72 956 -958 0
376 -19 -72 -956 958 0
376 19 -72 956 958 0
376 -201 -207 1528 -1530 0
376 -201 207 1528 1530 0
376 201 -207 -1528 -1530 0
376 201 207 -1528 1530 0
376 -201 207 -1528 -1530 0
376 201 207 1528 -1530 0
376 -201 -207 -1528 1530 0
376 201 -207 1528 1530 0
376 -148 -149 1663 -1665 0
376 -148 149 1663 1665 0
376 148 -149 -1663 -1665 0
376 148 149 -1663 1665 0
376 -148 149 -1663 -1665 0
376 148 149 1663 -1665 0
376 -148 -149 -1663 1665 0
376 148 -149 1663 1665 0
376 4 -16 -18 -956 0
376 4 -16 18 956 0
376 -4 16 -18 -956 0
376 -4 16 18 956 0
376 -4 -16 18 -956 0
376 4 16 18 -956 0
376 -4 -16 -18 956 0
376 4 16 -18 956 0
376 -24 -26 1398 -1400 0
376 -24 26 1398 1400 0
376 24 -26 -1398 -1400 0
376 24 26 -1398 1400 0
376 -24 26 -1398 -1400 0
376 24 26 1398 -1400 0
376 -24 -26 -1398 1400 0
376 24 -26 1398 1400 0
376 -268 -270 764 -766 0
376 -268 270 764 766 0
376 268 -270 -764 -766 0
376 268 270 -764 766 0
376 -268 270 -764 -766 0
376 268 270 764 -766 0
376 -268 -270 -764 766 0
376 268 -270 764 766 0
376 3 -15 -17 -950 0
376 3 -15 17 950 0
376 -3 15 -17 -950 0
376 -3 15 17 950 0
376 -3 -15 17 -950 0
376 3 15 17 -950 0
376 -3 -15 -17 950 0
376 3 15 -17 950 0
376 -35 -38 1402 -1404 0
376 -35 38 1402 1404 0
376 35 -38 -1402 -1404 0
376 35 38 -1402 1404 0
376 -35 38 -1402 -1404 0
376 35 38 1402 -1404 0
376 -35 -38 -1402 1404 0
376 35 -38 1402 1404 0
376 179 -188 -250 -662 0
376 179 -188 250 662 0
376 -179 188 -250 -662 0
376 -179 188 250 662 0
376 -179 -188 250 -662 0
376 179 188 250 -662 0
376 -179 -188 -250 662 0
376 179 188 -250 662 0
376 -17 -70 944 -946 0
376 -17 70 944 946 0
376 17 -70 -944 -946 0
376 17 70 -944 946 0
376 -17 70 -944 -946 0
376 17 70 944 -946 0
376 -17 -70 -944 946 0
376 17 -70 944 946 0
376 -182 -188 1508 -1510 0
376 -182 188 1508 1510 0
376 182 -188 -1508 -1510 0
376 182 188 -1508 1510 0
376 -182 188 -1508 -1510 0
376 182 188 1508 -1510 0
376 -182 -188 -1508 1510 0
376 182 -188 1508 1510 0
376 147 -153 -156 -1519 0
376 147 -153 156 1519 0
376 -147 153 -156 -1519 0
376 -147 153 156 1519 0
376 -147 -153 156 -1519 0
376 147 153 156 -1519 0
376 -147 -153 -156 1519 0
376 147 153 -156 1519 0
376 -56 -60 1409 -1411 0
376 -56 60 1409 1411 0
376 56 -60 -1409 -1411 0
376 56 60 -1409 1411 0
376 -56 60 -1409 -1411 0
376 56 60 1409 -1411 0
376 -56 -60 -1409 1411 0
376 56 -60 1409 1411 0
376 2 -14 -16 -944 0
376 2 -14 16 944 0
376 -2 14 -16 -944 0
376 -2 14 16 944 0
376 -2 -14 16 -944 0
376 2 14 16 -944 0
376 -2 -14 -16 944 0
376 2 14 -16 944 0
376 -258 -260 704 -706 0
376 -258 260 704 706 0
376 258 -260 -704 -706 0
376 258 260 -704 706 0
376 -258 260 -704 -706 0
376 258 260 704 -706 0
376 -258 -260 -704 706 0
376 258 -260 704 706 0
376 -181 -182 1644 -1646 0
376 -181 182 1644 1646 0
376 181 -182 -1644 -1646 0
376 181 182 -1644 1646 0
376 -181 182 -1644 -1646 0
376 181 182 1644 -1646 0
376 -181 -182 -1644 1646 0
376 181 -182 1644 1646 0
376 -196 -198 1653 -1655 0
376 -196 198 1653 1655 0
376 196 -198 -1653 -1655 0
376 196 198 -1653 1655 0
376 -196 198 -1653 -1655 0
376 196 198 1653 -1655 0
376 -196 -198 -1653 1655 0
376 196 -198 1653 1655 0
376 1 -13 -15 -938 0
376 1 -13 15 938 0
376 -1 13 -15 -938 0
376 -1 13 15 938 0
376 -1 -13 15 -938 0
376 1 13 15 -938 0
376 -1 -13 -15 938 0
376 1 13 -15 938 0
376 147 -156 -218 -470 0
376 147 -156 218 470 0
376 -147 156 -218 -470 0
376 -147 156 218 470 0
376 -147 -156 218 -470 0
376 147 156 218 -470 0
376 -147 -156 -218 470 0
376 147 156 -218 470 0
376 -30 -34 1422 -1424 0
376 -30 34 1422 1424 0
376 30 -34 -1422 -1424 0
376 30 34 -1422 1424 0
376 -30 34 -1422 -1424 0
376 30 34 1422 -1424 0
376 -30 -34 -1422 1424 0
376 30 -34 1422 1424 0
376 4 -10 -12 -1417 0
376 4 -10 12 1417 0
376 -4 10 -12 -1417 0
376 -4 10 12 1417 0
376 -4 -10 12 -1417 0
376 4 10 12 -1417 0
376 -4 -10 -12 1417 0
376 4 10 -12 1417 0
376 -15 -68 931 -933 0
376 -15 68 931 933 0
376 15 -68 -931 -933 0
376 15 68 -931 933 0
376 -15 68 -931 -933 0
376 15 68 931 -933 0
376 -15 -68 -931 933 0
376 15 -68 931 933 0
376 -16 -18 1417 -1419 0
376 -16 18 1417 1419 0
376 16 -18 -1417 -1419 0
376 16 18 -1417 1419 0
376 -16 18 -1417 -1419 0
376 16 18 1417 -1419 0
376 -16 -18 -1417 1419 0
376 16 -18 1417 1419 0
376 -25 -27 1420 -1422 0
376 -25 27 1420 1422 0
376 25 -27 -1420 -1422 0
376 25 27 -1420 1422 0
376 -25 27 -1420 -1422 0
376 25 27 1420 -1422 0
376 -25 -27 -1420 1422 0
376 25 -27 1420 1422 0
376 -264 -265 745 -747 0
376 -264 265 745 747 0
376 264 -265 -745 -747 0
376 264 265 -745 747 0
376 -264 265 -745 -747 0
376 264 265 745 -747 0
376 -264 -265 -745 747 0
376 264 -265 745 747 0
376 -43 -45 1426 -1428 0
376 -43 45 1426 1428 0
376 43 -45 -1426 -1428 0
376 43 45 -1426 1428 0
376 -43 45 -1426 -1428 0
376 43 45 1426 -1428 0
376 -43 -45 -1426 1428 0
376 43 -45 1426 1428 0
376 -54 -57 1430 -1432 0
376 -54 57 1430 1432 0
376 54 -57 -1430 -1432 0
376 54 57 -1430 1432 0
376 -54 57 -1430 -1432 0
376 54 57 1430 -1432 0
376 -54 -57 -1430 1432 0
376 54 -57 1430 1432 0
376 11 -13 -14 -926 0
376 11 -13 14 926 0
376 -11 13 -14 -926 0
376 -11 13 14 926 0
376 -11 -13 14 -926 0
376 11 13 14 -926 0
376 -11 -13 -14 926 0
376 11 13 -14 926 0
376 -63 -75 1433 -1435 0
376 -63 75 1433 1435 0
376 63 -75 -1433 -1435 0
376 63 75 -1433 1435 0
376 -63 75 -1433 -1435 0
376 63 75 1433 -1435 0
376 -63 -75 -1433 1435 0
376 63 -75 1433 1435 0
376 -67 -71 926 -928 0
376 -67 71 926 928 0
376 67 -71 -926 -928 0
376 67 71 -926 928 0
376 -67 71 -926 -928 0
376 67 71 926 -928 0
376 -67 -71 -926 928 0
376 67 -71 926 928 0
376 -162 -165 1519 -1521 0
376 -162 165 1519 1521 0
376 162 -165 -1519 -1521 0
376 162 165 -1519 1521 0
376 -162 165 -1519 -1521 0
376 162 165 1519 -1521 0
376 -162 -165 -1519 1521 0
376 162 -165 1519 1521 0
376 -55 -58 1316 -1318 0
376 -55 58 1316 1318 0
376 55 -58 -1316 -1318 0
376 55 58 -1316 1318 0
376 -55 58 -1316 -1318 0
376 55 58 1316 -1318 0
376 -55 -58 -1316 1318 0
376 55 -58 1316 1318 0
376 207 -216 -221 -830 0
376 207 -216 221 830 0
376 -207 216 -221 -830 0
376 -207 216 221 830 0
376 -207 -216 221 -830 0
376 207 216 221 -830 0
376 -207 -216 -221 830 0
376 207 216 -221 830 0
376 10 -12 -13 -920 0
376 10 -12 13 920 0
376 -10 12 -13 -920 0
376 -10 12 13 920 0
376 -10 -12 13 -920 0
376 10 12 13 -920 0
376 -10 -12 -13 920 0
376 10 12 -13 920 0
376 -219 -231 458 -460 0
376 -219 231 458 460 0
376 219 -231 -458 -460 0
376 219 231 -458 460 0
376 -219 231 -458 -460 0
376 219 231 458 -460 0
376 -219 -231 -458 460 0
376 219 -231 458 460 0
376 -190 -193 1446 -1448 0
376 -190 193 1446 1448 0
376 190 -193 -1446 -1448 0
376 190 193 -1446 1448 0
376 -190 193 -1446 -1448 0
376 190 193 1446 -1448 0
376 -190 -193 -1446 1448 0
376 190 -193 1446 1448 0
376 -157 -163 1439 -1441 0
376 -157 163 1439 1441 0
376 157 -163 -1439 -1441 0
376 157 163 -1439 1441 0
376 -157 163 -1439 -1441 0
376 157 163 1439 -1441 0
376 -157 -163 -1439 1441 0
376 157 -163 1439 1441 0
376 -166 -172 1441 -1443 0
376 -166 172 1441 1443 0
376 166 -172 -1441 -1443 0
376 166 172 -1441 1443 0
376 -166 172 -1441 -1443 0
376 166 172 1441 -1443 0
376 -166 -172 -1441 1443 0
376 166 -172 1441 1443 0
376 -181 -184 1444 -1446 0
376 -181 184 1444 1446 0
376 181 -184 -1444 -1446 0
376 181 184 -1444 1446 0
376 -181 184 -1444 -1446 0
376 181 184 1444 -1446 0
376 -181 -184 -1444 1446 0
376 181 -184 1444 1446 0
376 206 -215 -220 -824 0
376 206 -215 220 824 0
376 -206 215 -220 -824 0
376 -206 215 220 824 0
376 -206 -215 220 -824 0
376 206 215 220 -824 0
376 -206 -215 -220 824 0
376 206 215 -220 824 0
376 -202 -208 1449 -1451 0
376 -202 208 1449 1451 0
376 202 -208 -1449 -1451 0
376 202 208 -1449 1451 0
376 -202 208 -1449 -1451 0
376 202 208 1449 -1451 0
376 -202 -208 -1449 1451 0
376 202 -208 1449 1451 0
376 -11 -64 907 -909 0
376 -11 64 907 909 0
376 11 -64 -907 -909 0
376 11 64 -907 909 0
376 -11 64 -907 -909 0
376 11 64 907 -909 0
376 -11 -64 -907 909 0
376 11 -64 907 909 0
376 -266 -267 757 -759 0
376 -266 267 757 759 0
376 266 -267 -757 -759 0
376 266 267 -757 759 0
376 -266 267 -757 -759 0
376 266 267 757 -759 0
376 -266 -267 -757 759 0
376 266 -267 757 759 0
376 -155 -158 1454 -1456 0
376 -155 158 1454 1456 0
376 155 -158 -1454 -1456 0
376 155 158 -1454 1456 0
376 -155 158 -1454 -1456 0
376 155 158 1454 -1456 0
376 -155 -158 -1454 1456 0
376 155 -158 1454 1456 0
376 -173 -176 1458 -1460 0
376 -173 176 1458 1460 0
376 173 -176 -1458 -1460 0
376 173 176 -1458 1460 0
376 -173 176 -1458 -1460 0
376 173 176 1458 -1460 0
376 -173 -176 -1458 1460 0
376 173 -176 1458 1460 0
376 -262 -264 728 -730 0
376 -262 264 728 730 0
376 262 -264 -728 -730 0
376 262 264 -728 730 0
376 -262 264 -728 -730 0
376 262 264 728 -730 0
376 -262 -264 -728 730 0
376 262 -264 728 730 0
376 -191 -194 1462 -1464 0
376 -191 194 1462 1464 0
376 191 -194 -1462 -1464 0
376 191 194 -1462 1464 0
376 -191 194 -1462 -1464 0
376 191 194 1462 -1464 0
376 -191 -194 -1462 1464 0
376 191 -194 1462 1464 0
376 -63 -67 902 -904 0
376 -63 67 902 904 0
376 63 -67 -902 -904 0
376 63 67 -902 904 0
376 -63 67 -902 -904 0
376 63 67 902 -904 0
376 -63 -67 -902 904 0
376 63 -67 902 904 0
376 -200 -207 1655 -1657 0
376 -200 207 1655 1657 0
376 200 -207 -1655 -1657 0
376 200 207 -1655 1657 0
376 -200 207 -1655 -1657 0
376 200 207 1655 -1657 0
376 -200 -207 -1655 1657 0
376 200 -207 1655 1657 0
376 -203 -209 1465 -1467 0
376 -203 209 1465 1467 0
376 203 -209 -1465 -1467 0
376 203 209 -1465 1467 0
376 -203 209 -1465 -1467 0
376 203 209 1465 -1467 0
376 -203 -209 -1465 1467 0
376 203 -209 1465 1467 0
376 -197 -200 1511 -1513 0
376 -197 200 1511 1513 0
376 197 -200 -1511 -1513 0
376 197 200 -1511 1513 0
376 -197 200 -1511 -1513 0
376 197 200 1511 -1513 0
376 -197 -200 -1511 1513 0
376 197 -200 1511 1513 0
376 -156 -159 1470 -1472 0
376 -156 159 1470 1472 0
376 156 -159 -1470 -1472 0
376 156 159 -1470 1472 0
376 -156 159 -1470 -1472 0
376 156 159 1470 -1472 0
376 -156 -159 -1470 1472 0
376 156 -159 1470 1472 0
376 -28 -31 1304 -1306 0
376 -28 31 1304 1306 0
376 28 -31 -1304 -1306 0
376 28 31 -1304 1306 0
376 -28 31 -1304 -1306 0
376 28 31 1304 -1306 0
376 -28 -31 -1304 1306 0
376 28 -31 1304 1306 0
376 -192 -195 1478 -1480 0
376 -192 195 1478 1480 0
376 192 -195 -1478 -1480 0
376 192 195 -1478 1480 0
376 -192 195 -1478 -1480 0
376 192 195 1478 -1480 0
376 -192 -195 -1478 1480 0
376 192 -195 1478 1480 0
376 -168 -174 1473 -1475 0
376 -168 174 1473 1475 0
376 168 -174 -1473 -1475 0
376 168 174 -1473 1475 0
376 -168 174 -1473 -1475 0
376 168 174 1473 -1475 0
376 -168 -174 -1473 1475 0
376 168 -174 1473 1475 0
376 6 -8 -9 -896 0
376 6 -8 9 896 0
376 -6 8 -9 -896 0
376 -6 8 9 896 0
376 -6 -8 9 -896 0
376 6 8 9 -896 0
376 -6 -8 -9 896 0
376 6 8 -9 896 0
376 -61 -65 890 -892 0
376 -61 65 890 892 0
376 61 -65 -890 -892 0
376 61 65 -890 892 0
376 -61 65 -890 -892 0
376 61 65 890 -892 0
376 -61 -65 -890 892 0
376 61 -65 890 892 0
376 -183 -186 1476 -1478 0
376 -183 186 1476 1478 0
376 183 -186 -1476 -1478 0
376 183 186 -1476 1478 0
376 -183 186 -1476 -1478 0
376 183 186 1476 -1478 0
376 -183 -186 -1476 1478 0
376 183 -186 1476 1478 0
376 -204 -210 1481 -1483 0
376 -204 210 1481 1483 0
376 204 -210 -1481 -1483 0
376 204 210 -1481 1483 0
376 -204 210 -1481 -1483 0
376 204 210 1481 -1483 0
376 -204 -210 -1481 1483 0
376 204 -210 1481 1483 0
376 145 -148 -154 -1439 0
376 145 -148 154 1439 0
376 -145 148 -154 -1439 0
376 -145 148 154 1439 0
376 -145 -148 154 -1439 0
376 145 148 154 -1439 0
376 -145 -148 -154 1439 0
376 145 148 -154 1439 0
376 146 -152 -155 -1503 0
376 146 -152 155 1503 0
376 -146 152 -155 -1503 0
376 -146 152 155 1503 0
376 -146 -152 155 -1503 0
376 146 152 155 -1503 0
376 -146 -152 -155 1503 0
376 146 152 -155 1503 0
376 -187 -188 1648 -1650 0
376 -187 188 1648 1650 0
376 187 -188 -1648 -1650 0
376 187 188 -1648 1650 0
376 -187 188 -1648 -1650 0
376 187 188 1648 -1650 0
376 -187 -188 -1648 1650 0
376 187 -188 1648 1650 0
376 -172 -178 1490 -1492 0
376 -172 178 1490 1492 0
376 172 -178 -1490 -1492 0
376 172 178 -1490 1492 0
376 -172 178 -1490 -1492 0
376 172 178 1490 -1492 0
376 -172 -178 -1490 1492 0
376 172 -178 1490 1492 0
376 -190 -196 1494 -1496 0
376 -190 196 1494 1496 0
376 190 -196 -1494 -1496 0
376 190 196 -1494 1496 0
376 -190 196 -1494 -1496 0
376 190 196 1494 -1496 0
376 -190 -196 -1494 1496 0
376 190 -196 1494 1496 0
376 -265 -266 751 -753 0
376 -265 266 751 753 0
376 265 -266 -751 -753 0
376 265 266 -751 753 0
376 -265 266 -751 -753 0
376 265 266 751 -753 0
376 -265 -266 -751 753 0
376 265 -266 751 753 0
376 -205 -208 1497 -1499 0
376 -205 208 1497 1499 0
376 205 -208 -1497 -1499 0
376 205 208 -1497 1499 0
376 -205 208 -1497 -1499 0
376 205 208 1497 -1499 0
376 -205 -208 -1497 1499 0
376 205 -208 1497 1499 0
376 -59 -63 878 -880 0
376 -59 63 878 880 0
376 59 -63 -878 -880 0
376 59 63 -878 880 0
376 -59 63 -878 -880 0
376 59 63 878 -880 0
376 -59 -63 -878 880 0
376 59 -63 878 880 0
376 -161 -164 1503 -1505 0
376 -161 164 1503 1505 0
376 161 -164 -1503 -1505 0
376 161 164 -1503 1505 0
376 -161 164 -1503 -1505 0
376 161 164 1503 -1505 0
376 -161 -164 -1503 1505 0
376 161 -164 1503 1505 0
376 -170 -173 1505 -1507 0
376 -170 173 1505 1507 0
376 170 -173 -1505 -1507 0
376 170 173 -1505 1507 0
376 -170 173 -1505 -1507 0
376 170 173 1505 -1507 0
376 -170 -173 -1505 1507 0
376 170 -173 1505 1507 0
376 -181 -187 1492 -1494 0
376 -181 187 1492 1494 0
376 181 -187 -1492 -1494 0
376 181 187 -1492 1494 0
376 -181 187 -1492 -1494 0
376 181 187 1492 -1494 0
376 -181 -187 -1492 1494 0
376 181 -187 1492 1494 0
376 -224 -277 824 -826 0
376 -224 277 824 826 0
376 224 -277 -824 -826 0
376 224 277 -824 826 0
376 -224 277 -824 -826 0
376 224 277 824 -826 0
376 -224 -277 -824 826 0
376 224 -277 824 826 0
376 -5 -58 871 -873 0
376 -5 58 871 873 0
376 5 -58 -871 -873 0
376 5 58 -871 873 0
376 -5 58 -871 -873 0
376 5 58 871 -873 0
376 -5 -58 -871 873 0
376 5 -58 871 873 0
376 -206 -209 1513 -1515 0
376 -206 209 1513 1515 0
376 206 -209 -1513 -1515 0
376 206 209 -1513 1515 0
376 -206 209 -1513 -1515 0
376 206 209 1513 -1515 0
376 -206 -209 -1513 1515 0
376 206 -209 1513 1515 0
376 -171 -174 1521 -1523 0
376 -171 174 1521 1523 0
376 171 -174 -1521 -1523 0
376 171 174 -1521 1523 0
376 -171 174 -1521 -1523 0
376 171 174 1521 -1523 0
376 -171 -174 -1521 1523 0
376 171 -174 1521 1523 0
376 204 -213 -218 -812 0
376 204 -213 218 812 0
376 -204 213 -218 -812 0
376 -204 213 218 812 0
376 -204 -213 218 -812 0
376 204 213 218 -812 0
376 -204 -213 -218 812 0
376 204 213 -218 812 0
376 -192 -198 1526 -1528 0
376 -192 198 1526 1528 0
376 192 -198 -1526 -1528 0
376 192 198 -1526 1528 0
376 -192 198 -1526 -1528 0
376 192 198 1526 -1528 0
376 -192 -198 -1526 1528 0
376 192 -198 1526 1528 0
376 178 -187 -249 -656 0
376 178 -187 249 656 0
376 -178 187 -249 -656 0
376 -178 187 249 656 0
376 -178 -187 249 -656 0
376 178 187 249 -656 0
376 -178 -187 -249 656 0
376 178 187 -249 656 0
376 -158 -160 1537 -1539 0
376 -158 160 1537 1539 0
376 158 -160 -1537 -1539 0
376 158 160 -1537 1539 0
376 -158 160 -1537 -1539 0
376 158 160 1537 -1539 0
376 -158 -160 -1537 1539 0
376 158 -160 1537 1539 0
376 197 -206 -268 -770 0
376 197 -206 268 770 0
376 -197 206 -268 -770 0
376 -197 206 268 770 0
376 -197 -206 268 -770 0
376 197 206 268 -770 0
376 -197 -206 -268 770 0
376 197 206 -268 770 0
376 -170 -172 1541 -1543 0
376 -170 172 1541 1543 0
376 170 -172 -1541 -1543 0
376 170 172 -1541 1543 0
376 -170 172 -1541 -1543 0
376 170 172 1541 -1543 0
376 -170 -172 -1541 1543 0
376 170 -172 1541 1543 0
376 -180 -181 1545 -1547 0
376 -180 181 1545 1547 0
376 180 -181 -1545 -1547 0
376 180 181 -1545 1547 0
376 -180 181 -1545 -1547 0
376 180 181 1545 -1547 0
376 -180 -181 -1545 1547 0
376 180 -181 1545 1547 0
376 -184 -185 1549 -1551 0
376 -184 185 1549 1551 0
376 184 -185 -1549 -1551 0
376 184 185 -1549 1551 0
376 -184 185 -1549 -1551 0
376 184 185 1549 -1551 0
376 -184 -185 -1549 1551 0
376 184 -185 1549 1551 0
376 -195 -196 1553 -1555 0
376 -195 196 1553 1555 0
376 195 -196 -1553 -1555 0
376 195 196 -1553 1555 0
376 -195 196 -1553 -1555 0
376 195 196 1553 -1555 0
376 -195 -196 -1553 1555 0
376 195 -196 1553 1555 0
376 -205 -207 1558 -1560 0
376 -205 207 1558 1560 0
376 205 -207 -1558 -1560 0
376 205 207 -1558 1560 0
376 -205 207 -1558 -1560 0
376 205 207 1558 -1560 0
376 -205 -207 -1558 1560 0
376 205 -207 1558 1560 0
376 -221 -274 806 -808 0
376 -221 274 806 808 0
376 221 -274 -806 -808 0
376 221 274 -806 808 0
376 -221 274 -806 -808 0
376 221 274 806 -808 0
376 -221 -274 -806 808 0
376 221 -274 806 808 0
376 -248 -249 649 -651 0
376 -248 249 649 651 0
376 248 -249 -649 -651 0
376 248 249 -649 651 0
376 -248 249 -649 -651 0
376 248 249 649 -651 0
376 -248 -249 -649 651 0
376 248 -249 649 651 0
376 187 -196 -258 -710 0
376 187 -196 258 710 0
376 -187 196 -258 -710 0
376 -187 196 258 710 0
376 -187 -196 258 -710 0
376 187 196 258 -710 0
376 -187 -196 -258 710 0
376 187 196 -258 710 0
376 -219 -223 817 -819 0
376 -219 223 817 819 0
376 219 -223 -817 -819 0
376 219 223 -817 819 0
376 -219 223 -817 -819 0
376 219 223 817 -819 0
376 -219 -223 -817 819 0
376 219 -223 817 819 0
376 -174 -175 1574 -1576 0
376 -174 175 1574 1576 0
376 174 -175 -1574 -1576 0
376 174 175 -1574 1576 0
376 -174 175 -1574 -1576 0
376 174 175 1574 -1576 0
376 -174 -175 -1574 1576 0
376 174 -175 1574 1576 0
376 -154 -160 1486 -1488 0
376 -154 160 1486 1488 0
376 154 -160 -1486 -1488 0
376 154 160 -1486 1488 0
376 -154 160 -1486 -1488 0
376 154 160 1486 -1488 0
376 -154 -160 -1486 1488 0
376 154 -160 1486 1488 0
376 -200 -201 1586 -1588 0
376 -200 201 1586 1588 0
376 200 -201 -1586 -1588 0
376 200 201 -1586 1588 0
376 -200 201 -1586 -1588 0
376 200 201 1586 -1588 0
376 -200 -201 -1586 1588 0
376 200 -201 1586 1588 0
376 -208 -209 1590 -1592 0
376 -208 209 1590 1592 0
376 208 -209 -1590 -1592 0
376 208 209 -1590 1592 0
376 -208 209 -1590 -1592 0
376 208 209 1590 -1592 0
376 -208 -209 -1590 1592 0
376 208 -209 1590 1592 0
376 -264 -266 740 -742 0
376 -264 266 740 742 0
376 264 -266 -740 -742 0
376 264 266 -740 742 0
376 -264 266 -740 -742 0
376 264 266 740 -742 0
376 -264 -266 -740 742 0
376 264 -266 740 742 0
376 -158 -159 1635 -1637 0
376 -158 159 1635 1637 0
376 158 -159 -1635 -1637 0
376 158 159 -1635 1637 0
376 -158 159 -1635 -1637 0
376 158 159 1635 -1637 0
376 -158 -159 -1635 1637 0
376 158 -159 1635 1637 0
376 -153 -154 1598 -1600 0
376 -153 154 1598 1600 0
376 153 -154 -1598 -1600 0
376 153 154 -1598 1600 0
376 -153 154 -1598 -1600 0
376 153 154 1598 -1600 0
376 -153 -154 -1598 1600 0
376 153 -154 1598 1600 0
376 -158 -159 1601 -1603 0
376 -158 159 1601 1603 0
376 158 -159 -1601 -1603 0
376 158 159 -1601 1603 0
376 -158 159 -1601 -1603 0
376 158 159 1601 -1603 0
376 -158 -159 -1601 1603 0
376 158 -159 1601 1603 0
376 -273 -274 800 -802 0
376 -273 274 800 802 0
376 273 -274 -800 -802 0
376 273 274 -800 802 0
376 -273 274 -800 -802 0
376 273 274 800 -802 0
376 -273 -274 -800 802 0
376 273 -274 800 802 0
376 -167 -174 1606 -1608 0
376 -167 174 1606 1608 0
376 167 -174 -1606 -1608 0
376 167 174 -1606 1608 0
376 -167 174 -1606 -1608 0
376 167 174 1606 -1608 0
376 -167 -174 -1606 1608 0
376 167 -174 1606 1608 0
376 -172 -173 1681 -1683 0
376 -172 173 1681 1683 0
376 172 -173 -1681 -1683 0
376 172 173 -1681 1683 0
376 -172 173 -1681 -1683 0
376 172 173 1681 -1683 0
376 -172 -173 -1681 1683 0
376 172 -173 1681 1683 0
376 145 -146 -148 -1630 0
376 145 -146 148 1630 0
376 -145 146 -148 -1630 0
376 -145 146 148 1630 0
376 -145 -146 148 -1630 0
376 145 146 148 -1630 0
376 -145 -146 -148 1630 0
376 145 146 -148 1630 0
376 -182 -183 1610 -1612 0
376 -182 183 1610 1612 0
376 182 -183 -1610 -1612 0
376 182 183 -1610 1612 0
376 -182 183 -1610 -1612 0
376 182 183 1610 -1612 0
376 -182 -183 -1610 1612 0
376 182 -183 1610 1612 0
376 -187 -190 1614 -1616 0
376 -187 190 1614 1616 0
376 187 -190 -1614 -1616 0
376 187 190 -1614 1616 0
376 -187 190 -1614 -1616 0
376 187 190 1614 -1616 0
376 -187 -190 -1614 1616 0
376 187 -190 1614 1616 0
376 192 -201 -263 -740 0
376 192 -201 263 740 0
376 -192 201 -263 -740 0
376 -192 201 263 740 0
376 -192 -201 263 -740 0
376 192 201 263 -740 0
376 -192 -201 -263 740 0
376 192 201 -263 740 0
376 -198 -199 1618 -1620 0
376 -198 199 1618 1620 0
376 198 -199 -1618 -1620 0
376 198 199 -1618 1620 0
376 -198 199 -1618 -1620 0
376 198 199 1618 -1620 0
376 -198 -199 -1618 1620 0
376 198 -199 1618 1620 0
376 -152 -155 1632 -1634 0
376 -152 155 1632 1634 0
376 152 -155 -1632 -1634 0
376 152 155 -1632 1634 0
376 -152 155 -1632 -1634 0
376 152 155 1632 -1634 0
376 -152 -155 -1632 1634 0
376 152 -155 1632 1634 0
376 -207 -208 1622 -1624 0
376 -207 208 1622 1624 0
376 207 -208 -1622 -1624 0
376 207 208 -1622 1624 0
376 -207 208 -1622 -1624 0
376 207 208 1622 -1624 0
376 -207 -208 -1622 1624 0
376 207 -208 1622 1624 0
376 -182 -185 1460 -1462 0
376 -182 185 1460 1462 0
376 182 -185 -1460 -1462 0
376 182 185 -1460 1462 0
376 -182 185 -1460 -1462 0
376 182 185 1460 -1462 0
376 -182 -185 -1460 1462 0
376 182 -185 1460 1462 0
376 -161 -164 1638 -1640 0
376 -161 164 1638 1640 0
376 161 -164 -1638 -1640 0
376 161 164 -1638 1640 0
376 -161 164 -1638 -1640 0
376 161 164 1638 -1640 0
376 -161 -164 -1638 1640 0
376 161 -164 1638 1640 0
376 -263 -265 734 -736 0
376 -263 265 734 736 0
376 263 -265 -734 -736 0
376 263 265 -734 736 0
376 -263 265 -734 -736 0
376 263 265 734 -736 0
376 -263 -265 -734 736 0
376 263 -265 734 736 0
376 -172 -177 1642 -1644 0
376 -172 177 1642 1644 0
376 172 -177 -1642 -1644 0
376 172 177 -1642 1644 0
376 -172 177 -1642 -1644 0
376 172 177 1642 -1644 0
376 -172 -177 -1642 1644 0
376 172 -177 1642 1644 0
376 -149 -151 1630 -1632 0
376 -149 151 1630 1632 0
376 149 -151 -1630 -1632 0
376 149 151 -1630 1632 0
376 -149 151 -1630 -1632 0
376 149 151 1630 -1632 0
376 -149 -151 -1630 1632 0
376 149 -151 1630 1632 0
376 -183 -186 1646 -1648 0
376 -183 186 1646 1648 0
376 183 -186 -1646 -1648 0
376 183 186 -1646 1648 0
376 -183 186 -1646 -1648 0
376 183 186 1646 -1648 0
376 -183 -186 -1646 1648 0
376 183 -186 1646 1648 0
376 -190 -191 1650 -1652 0
376 -190 191 1650 1652 0
376 190 -191 -1650 -1652 0
376 190 191 -1650 1652 0
376 -190 191 -1650 -1652 0
376 190 191 1650 -1652 0
376 -190 -191 -1650 1652 0
376 190 -191 1650 1652 0
376 191 -200 -262 -734 0
376 191 -200 262 734 0
376 -191 200 -262 -734 0
376 -191 200 262 734 0
376 -191 -200 262 -734 0
376 191 200 262 -734 0
376 -191 -200 -262 734 0
376 191 200 -262 734 0
376 -209 -210 1657 -1659 0
376 -209 210 1657 1659 0
376 209 -210 -1657 -1659 0
376 209 210 -1657 1659 0
376 -209 210 -1657 -1659 0
376 209 210 1657 -1659 0
376 -209 -210 -1657 1659 0
376 209 -210 1657 1659 0
376 -201 -206 1620 -1622 0
376 -201 206 1620 1622 0
376 201 -206 -1620 -1622 0
376 201 206 -1620 1622 0
376 -201 206 -1620 -1622 0
376 201 206 1620 -1622 0
376 -201 -206 -1620 1622 0
376 201 -206 1620 1622 0
376 -209 -210 1624 -1626 0
376 -209 210 1624 1626 0
376 209 -210 -1624 -1626 0
376 209 210 -1624 1626 0
376 -209 210 -1624 -1626 0
376 209 210 1624 -1626 0
376 -209 -210 -1624 1626 0
376 209 -210 1624 1626 0
376 -150 -152 1665 -1667 0
376 -150 152 1665 1667 0
376 150 -152 -1665 -1667 0
376 150 152 -1665 1667 0
376 -150 152 -1665 -1667 0
376 150 152 1665 -1667 0
376 -150 -152 -1665 1667 0
376 150 -152 1665 1667 0
376 -156 -157 1669 -1671 0
376 -156 157 1669 1671 0
376 156 -157 -1669 -1671 0
376 156 157 -1669 1671 0
376 -156 157 -1669 -1671 0
376 156 157 1669 -1671 0
376 -156 -157 -1669 1671 0
376 156 -157 1669 1671 0
376 -160 -161 1673 -1675 0
376 -160 161 1673 1675 0
376 160 -161 -1673 -1675 0
376 160 161 -1673 1675 0
376 -160 161 -1673 -1675 0
376 160 161 1673 -1675 0
376 -160 -161 -1673 1675 0
376 160 -161 1673 1675 0
376 -165 -166 1677 -1679 0
376 -165 166 1677 1679 0
376 165 -166 -1677 -1679 0
376 165 166 -1677 1679 0
376 -165 166 -1677 -1679 0
376 165 166 1677 -1679 0
376 -165 -166 -1677 1679 0
376 165 -166 1677 1679 0
376 188 -197 -259 -716 0
376 188 -197 259 716 0
376 -188 197 -259 -716 0
376 -188 197 259 716 0
376 -188 -197 259 -716 0
376 188 197 259 -716 0
376 -188 -197 -259 716 0
376 188 197 -259 716 0
376 -185 -186 1612 -1614 0
376 -185 186 1612 1614 0
376 185 -186 -1612 -1614 0
376 185 186 -1612 1614 0
376 -185 186 -1612 -1614 0
376 185 186 1612 -1614 0
376 -185 -186 -1612 1614 0
376 185 -186 1612 1614 0
376 -188 -189 1689 -1691 0
376 -188 189 1689 1691 0
376 188 -189 -1689 -1691 0
376 188 189 -1689 1691 0
376 -188 189 -1689 -1691 0
376 188 189 1689 -1691 0
376 -188 -189 -1689 1691 0
376 188 -189 1689 1691 0
376 -164 -167 1456 -1458 0
376 -164 167 1456 1458 0
376 164 -167 -1456 -1458 0
376 164 167 -1456 1458 0
376 -164 167 -1456 -1458 0
376 164 167 1456 -1458 0
376 -164 -167 -1456 1458 0
376 164 -167 1456 1458 0
376 -201 -202 1697 -1699 0
376 -201 202 1697 1699 0
376 201 -202 -1697 -1699 0
376 201 202 -1697 1699 0
376 -201 202 -1697 -1699 0
376 201 202 1697 -1699 0
376 -201 -202 -1697 1699 0
376 201 -202 1697 1699 0
376 190 -199 -261 -728 0
376 190 -199 261 728 0
376 -190 199 -261 -728 0
376 -190 199 261 728 0
376 -190 -199 261 -728 0
376 190 199 261 -728 0
376 -190 -199 -261 728 0
376 190 199 -261 728 0
376 -150 -151 1705 -1707 0
376 -150 151 1705 1707 0
376 150 -151 -1705 -1707 0
376 150 151 -1705 1707 0
376 -150 151 -1705 -1707 0
376 150 151 1705 -1707 0
376 -150 -151 -1705 1707 0
376 150 -151 1705 1707 0
376 -164 -167 1714 -1716 0
376 -164 167 1714 1716 0
376 164 -167 -1714 -1716 0
376 164 167 -1714 1716 0
376 -164 167 -1714 -1716 0
376 164 167 1714 -1716 0
376 -164 -167 -1714 1716 0
376 164 -167 1714 1716 0
376 -222 -275 812 -814 0
376 -222 275 812 814 0
376 222 -275 -812 -814 0
376 222 275 -812 814 0
376 -222 275 -812 -814 0
376 222 275 812 -814 0
376 -222 -275 -812 814 0
376 222 -275 812 814 0
376 -172 -173 1718 -1720 0
376 -172 173 1718 1720 0
376 172 -173 -1718 -1720 0
376 172 173 -1718 1720 0
376 -172 173 -1718 -1720 0
376 172 173 1718 -1720 0
376 -172 -173 -1718 1720 0
376 172 -173 1718 1720 0
376 -203 -208 1735 -1737 0
376 -203 208 1735 1737 0
376 203 -208 -1735 -1737 0
376 203 208 -1735 1737 0
376 -203 208 -1735 -1737 0
376 203 208 1735 -1737 0
376 -203 -208 -1735 1737 0
376 203 -208 1735 1737 0
376 -192 -194 1730 -1732 0
376 -192 194 1730 1732 0
376 192 -194 -1730 -1732 0
376 192 194 -1730 1732 0
376 -192 194 -1730 -1732 0
376 192 194 1730 -1732 0
376 -192 -194 -1730 1732 0
376 192 -194 1730 1732 0
376 -260 -261 721 -723 0
376 -260 261 721 723 0
376 260 -261 -721 -723 0
376 260 261 -721 723 0
376 -260 261 -721 -723 0
376 260 261 721 -723 0
376 -260 -261 -721 723 0
376 260 -261 721 723 0
376 -48 -52 1428 -1430 0
376 -48 52 1428 1430 0
376 48 -52 -1428 -1430 0
376 48 52 -1428 1430 0
376 -48 52 -1428 -1430 0
376 48 52 1428 -1430 0
376 -48 -52 -1428 1430 0
376 48 -52 1428 1430 0
376 3 -5 -6 -878 0
376 3 -5 6 878 0
376 -3 5 -6 -878 0
376 -3 5 6 878 0
376 -3 -5 6 -878 0
376 3 5 6 -878 0
376 -3 -5 -6 878 0
376 3 5 -6 878 0
376 4 -6 -7 -884 0
376 4 -6 7 884 0
376 -4 6 -7 -884 0
376 -4 6 7 884 0
376 -4 -6 7 -884 0
376 4 6 7 -884 0
376 -4 -6 -7 884 0
376 4 6 -7 884 0
376 -60 -64 884 -886 0
376 -60 64 884 886 0
376 60 -64 -884 -886 0
376 60 64 -884 886 0
376 -60 64 -884 -886 0
376 60 64 884 -886 0
376 -60 -64 -884 886 0
376 60 -64 884 886 0
376 5 -7 -8 -890 0
376 5 -7 8 890 0
376 -5 7 -8 -890 0
376 -5 7 8 890 0
376 -5 -7 8 -890 0
376 5 7 8 -890 0
376 -5 -7 -8 890 0
376 5 7 -8 890 0
376 -260 -262 716 -718 0
376 -260 262 716 718 0
376 260 -262 -716 -718 0
376 260 262 -716 718 0
376 -260 262 -716 -718 0
376 260 262 716 -718 0
376 -260 -262 -716 718 0
376 260 -262 716 718 0
376 -195 -197 1616 -1618 0
376 -195 197 1616 1618 0
376 195 -197 -1616 -1618 0
376 195 197 -1616 1618 0
376 -195 197 -1616 -1618 0
376 195 197 1616 -1618 0
376 -195 -197 -1616 1618 0
376 195 -197 1616 1618 0
376 -246 -247 637 -639 0
376 -246 247 637 639 0
376 246 -247 -637 -639 0
376 246 247 -637 639 0
376 -246 247 -637 -639 0
376 246 247 637 -639 0
376 -246 -247 -637 639 0
376 246 -247 637 639 0
376 203 -212 -217 -806 0
376 203 -212 217 806 0
376 -203 212 -217 -806 0
376 -203 212 217 806 0
376 -203 -212 217 -806 0
376 203 212 217 -806 0
376 -203 -212 -217 806 0
376 203 212 -217 806 0
376 -62 -66 896 -898 0
376 -62 66 896 898 0
376 62 -66 -896 -898 0
376 62 66 -896 898 0
376 -62 66 -896 -898 0
376 62 66 896 -898 0
376 -62 -66 -896 898 0
376 62 -66 896 898 0
376 7 -9 -10 -902 0
376 7 -9 10 902 0
376 -7 9 -10 -902 0
376 -7 9 10 902 0
376 -7 -9 10 -902 0
376 7 9 10 -902 0
376 -7 -9 -10 902 0
376 7 9 -10 902 0
376 201 -210 -219 -794 0
376 201 -210 219 794 0
376 -201 210 -219 -794 0
376 -201 210 219 794 0
376 -201 -210 219 -794 0
376 201 210 219 -794 0
376 -201 -210 -219 794 0
376 201 210 -219 794 0
376 -259 -261 710 -712 0
376 -259 261 710 712 0
376 259 -261 -710 -712 0
376 259 261 -710 712 0
376 -259 261 -710 -712 0
376 259 261 710 -712 0
376 -259 -261 -710 712 0
376 259 -261 710 712 0
376 -36 -39 1424 -1426 0
376 -36 39 1424 1426 0
376 36 -39 -1424 -1426 0
376 36 39 -1424 1426 0
376 -36 39 -1424 -1426 0
376 36 39 1424 -1426 0
376 -36 -39 -1424 1426 0
376 36 -39 1424 1426 0
376 -65 -69 914 -916 0
376 -65 69 914 916 0
376 65 -69 -914 -916 0
376 65 69 -914 916 0
376 -65 69 -914 -916 0
376 65 69 914 -916 0
376 -65 -69 -914 916 0
376 65 -69 914 916 0
376 145 -154 -217 -458 0
376 145 -154 217 458 0
376 -145 154 -217 -458 0
376 -145 154 217 458 0
376 -145 -154 217 -458 0
376 145 154 217 -458 0
376 -145 -154 -217 458 0
376 145 154 -217 458 0
376 9 -11 -12 -914 0
376 9 -11 12 914 0
376 -9 11 -12 -914 0
376 -9 11 12 914 0
376 -9 -11 12 -914 0
376 9 11 12 -914 0
376 -9 -11 -12 914 0
376 9 11 -12 914 0
376 -176 -181 1608 -1610 0
376 -176 181 1608 1610 0
376 176 -181 -1608 -1610 0
376 176 181 -1608 1610 0
376 -176 181 -1608 -1610 0
376 176 181 1608 -1610 0
376 -176 -181 -1608 1610 0
376 176 -181 1608 1610 0
376 -66 -70 920 -922 0
376 -66 70 920 922 0
376 66 -70 -920 -922 0
376 66 70 -920 922 0
376 -66 70 -920 -922 0
376 66 70 920 -922 0
376 -66 -70 -920 922 0
376 66 -70 920 922 0
376 146 -155 -217 -464 0
376 146 -155 217 464 0
376 -146 155 -217 -464 0
376 -146 155 217 464 0
376 -146 -155 217 -464 0
376 146 155 217 -464 0
376 -146 -155 -217 464 0
376 146 155 -217 464 0
376 3 -12 -21 -1266 0
376 3 -12 21 1266 0
376 -3 12 -21 -1266 0
376 -3 12 21 1266 0
376 -3 -12 21 -1266 0
376 3 12 21 -1266 0
376 -3 -12 -21 1266 0
376 3 12 -21 1266 0
376 4 -13 -22 -1274 0
376 4 -13 22 1274 0
376 -4 13 -22 -1274 0
376 -4 13 22 1274 0
376 -4 -13 22 -1274 0
376 4 13 22 -1274 0
376 -4 -13 -22 1274 0
376 4 13 -22 1274 0
376 -218 -220 464 -466 0
376 -218 220 464 466 0
376 218 -220 -464 -466 0
376 218 220 -464 466 0
376 -218 220 -464 -466 0
376 218 220 464 -466 0
376 -218 -220 -464 466 0
376 218 -220 464 466 0
376 -16 -69 938 -940 0
376 -16 69 938 940 0
376 16 -69 -938 -940 0
376 16 69 -938 940 0
376 -16 69 -938 -940 0
376 16 69 938 -940 0
376 -16 -69 -938 940 0
376 16 -69 938 940 0
376 -219 -221 470 -472 0
376 -219 221 470 472 0
376 219 -221 -470 -472 0
376 219 221 -470 472 0
376 -219 221 -470 -472 0
376 219 221 470 -472 0
376 -219 -221 -470 472 0
376 219 -221 470 472 0
376 -162 -163 1604 -1606 0
376 -162 163 1604 1606 0
376 162 -163 -1604 -1606 0
376 162 163 -1604 1606 0
376 -162 163 -1604 -1606 0
376 162 163 1604 -1606 0
376 -162 -163 -1604 1606 0
376 162 -163 1604 1606 0
376 -18 -71 950 -952 0
376 -18 71 950 952 0
376 18 -71 -950 -952 0
376 18 71 -950 952 0
376 -18 71 -950 -952 0
376 18 71 950 -952 0
376 -18 -71 -950 952 0
376 18 -71 950 952 0
376 148 -157 -219 -476 0
376 148 -157 219 476 0
376 -148 157 -219 -476 0
376 -148 157 219 476 0
376 -148 -157 219 -476 0
376 148 157 219 -476 0
376 -148 -157 -219 476 0
376 148 157 -219 476 0
376 -220 -222 476 -478 0
376 -220 222 476 478 0
376 220 -222 -476 -478 0
376 220 222 -476 478 0
376 -220 222 -476 -478 0
376 220 222 476 -478 0
376 -220 -222 -476 478 0
376 220 -222 476 478 0
376 -48 -57 1268 -1270 0
376 -48 57 1268 1270 0
376 48 -57 -1268 -1270 0
376 48 57 -1268 1270 0
376 -48 57 -1268 -1270 0
376 48 57 1268 -1270 0
376 -48 -57 -1268 1270 0
376 48 -57 1268 1270 0
376 2 -6 -18 -968 0
376 2 -6 18 968 0
376 -2 6 -18 -968 0
376 -2 6 18 968 0
376 -2 -6 18 -968 0
376 2 6 18 -968 0
376 -2 -6 -18 968 0
376 2 6 -18 968 0
376 149 -158 -220 -482 0
376 149 -158 220 482 0
376 -149 158 -220 -482 0
376 -149 158 220 482 0
376 -149 -158 220 -482 0
376 149 158 220 -482 0
376 -149 -158 -220 482 0
376 149 158 -220 482 0
376 -17 -19 961 -963 0
376 -17 19 961 963 0
376 17 -19 -961 -963 0
376 17 19 -961 963 0
376 -17 19 -961 -963 0
376 17 19 961 -963 0
376 -17 -19 -961 963 0
376 17 -19 961 963 0
376 -196 -197 1584 -1586 0
376 -196 197 1584 1586 0
376 196 -197 -1584 -1586 0
376 196 197 -1584 1586 0
376 -196 197 -1584 -1586 0
376 196 197 1584 -1586 0
376 -196 -197 -1584 1586 0
376 196 -197 1584 1586 0
376 -21 -22 974 -976 0
376 -21 22 974 976 0
376 21 -22 -974 -976 0
376 21 22 -974 976 0
376 -21 22 -974 -976 0
376 21 22 974 -976 0
376 -21 -22 -974 976 0
376 21 -22 974 976 0
376 -150 -151 1596 -1598 0
376 -150 151 1596 1598 0
376 150 -151 -1596 -1598 0
376 150 151 -1596 1598 0
376 -150 151 -1596 -1598 0
376 150 151 1596 -1598 0
376 -150 -151 -1596 1598 0
376 150 -151 1596 1598 0
376 -222 -224 488 -490 0
376 -222 224 488 490 0
376 222 -224 -488 -490 0
376 222 224 -488 490 0
376 -222 224 -488 -490 0
376 222 224 488 -490 0
376 -222 -224 -488 490 0
376 222 -224 488 490 0
376 174 -183 -245 -632 0
376 174 -183 245 632 0
376 -174 183 -245 -632 0
376 -174 183 245 632 0
376 -174 -183 245 -632 0
376 174 183 245 -632 0
376 -174 -183 -245 632 0
376 174 183 -245 632 0
376 -23 -24 986 -988 0
376 -23 24 986 988 0
376 23 -24 -986 -988 0
376 23 24 -986 988 0
376 -23 24 -986 -988 0
376 23 24 986 -988 0
376 -23 -24 -986 988 0
376 23 -24 986 988 0
376 202 -211 -220 -800 0
376 202 -211 220 800 0
376 -202 211 -220 -800 0
376 -202 211 220 800 0
376 -202 -211 220 -800 0
376 202 211 220 -800 0
376 -202 -211 -220 800 0
376 202 211 -220 800 0
376 -25 -26 998 -1000 0
376 -25 26 998 1000 0
376 25 -26 -998 -1000 0
376 25 26 -998 1000 0
376 -25 26 -998 -1000 0
376 25 26 998 -1000 0
376 -25 -26 -998 1000 0
376 25 -26 998 1000 0
376 -24 -25 992 -994 0
376 -24 25 992 994 0
376 24 -25 -992 -994 0
376 24 25 -992 994 0
376 -24 25 -992 -994 0
376 24 25 992 -994 0
376 -24 -25 -992 994 0
376 24 -25 992 994 0
376 152 -161 -223 -500 0
376 152 -161 223 500 0
376 -152 161 -223 -500 0
376 -152 161 223 500 0
376 -152 -161 223 -500 0
376 152 161 223 -500 0
376 -152 -161 -223 500 0
376 152 161 -223 500 0
376 -224 -226 500 -502 0
376 -224 226 500 502 0
376 224 -226 -500 -502 0
376 224 226 -500 502 0
376 -224 226 -500 -502 0
376 224 226 500 -502 0
376 -224 -226 -500 502 0
376 224 -226 500 502 0
376 10 -14 -26 -1016 0
376 10 -14 26 1016 0
376 -10 14 -26 -1016 0
376 -10 14 26 1016 0
376 -10 -14 26 -1016 0
376 10 14 26 -1016 0
376 -10 -14 -26 1016 0
376 10 14 -26 1016 0
376 153 -162 -224 -506 0
376 153 -162 224 506 0
376 -153 162 -224 -506 0
376 -153 162 224 506 0
376 -153 -162 224 -506 0
376 153 162 224 -506 0
376 -153 -162 -224 506 0
376 153 162 -224 506 0
376 -225 -227 506 -508 0
376 -225 227 506 508 0
376 225 -227 -506 -508 0
376 225 227 -506 508 0
376 -225 227 -506 -508 0
376 225 227 506 -508 0
376 -225 -227 -506 508 0
376 225 -227 506 508 0
376 -245 -247 626 -628 0
376 -245 247 626 628 0
376 245 -247 -626 -628 0
376 245 247 -626 628 0
376 -245 247 -626 -628 0
376 245 247 626 -628 0
376 -245 -247 -626 628 0
376 245 -247 626 628 0
376 -272 -273 794 -796 0
376 -272 273 794 796 0
376 272 -273 -794 -796 0
376 272 273 -794 796 0
376 -272 273 -794 -796 0
376 272 273 794 -796 0
376 -272 -273 -794 796 0
376 272 -273 794 796 0
376 -205 -206 1588 -1590 0
376 -205 206 1588 1590 0
376 205 -206 -1588 -1590 0
376 205 206 -1588 1590 0
376 -205 206 -1588 -1590 0
376 205 206 1588 -1590 0
376 -205 -206 -1588 1590 0
376 205 -206 1588 1590 0
376 -29 -30 1022 -1024 0
376 -29 30 1022 1024 0
376 29 -30 -1022 -1024 0
376 29 30 -1022 1024 0
376 -29 30 -1022 -1024 0
376 29 30 1022 -1024 0
376 -29 -30 -1022 1024 0
376 29 -30 1022 1024 0
