p wcnf 5452 16994 856
1 -681 0
1 -682 0
1 -683 0
1 -684 0
1 -685 0
1 -686 0
1 -687 0
1 -688 0
1 -689 0
1 -690 0
1 -691 0
1 -692 0
1 -693 0
1 -694 0
1 -695 0
1 -696 0
1 -697 0
1 -698 0
1 -699 0
1 -700 0
1 -701 0
1 -702 0
1 -703 0
1 -704 0
1 -705 0
1 -706 0
1 -707 0
1 -708 0
1 -709 0
1 -710 0
1 -711 0
1 -712 0
1 -713 0
1 -714 0
1 -715 0
1 -716 0
1 -717 0
1 -718 0
1 -719 0
1 -720 0
1 -721 0
1 -722 0
1 -723 0
1 -724 0
1 -725 0
1 -726 0
1 -727 0
1 -728 0
1 -729 0
1 -730 0
1 -731 0
1 -732 0
1 -733 0
1 -734 0
1 -735 0
1 -736 0
1 -737 0
1 -738 0
1 -739 0
1 -740 0
1 -741 0
1 -742 0
1 -743 0
1 -744 0
1 -745 0
1 -746 0
1 -747 0
1 -748 0
1 -749 0
1 -750 0
1 -751 0
1 -752 0
1 -753 0
1 -754 0
1 -755 0
1 -756 0
1 -757 0
1 -758 0
1 -759 0
1 -760 0
1 -761 0
1 -762 0
1 -763 0
1 -764 0
1 -765 0
1 -766 0
1 -767 0
1 -768 0
1 -769 0
1 -770 0
1 -771 0
1 -772 0
1 -773 0
1 -774 0
1 -775 0
1 -776 0
1 -777 0
1 -778 0
1 -779 0
1 -780 0
1 -781 0
1 -782 0
1 -783 0
1 -784 0
1 -785 0
1 -786 0
1 -787 0
1 -788 0
1 -789 0
1 -790 0
1 -791 0
1 -792 0
1 -793 0
1 -794 0
1 -795 0
1 -796 0
1 -797 0
1 -798 0
1 -799 0
1 -800 0
1 -801 0
1 -802 0
1 -803 0
1 -804 0
1 -805 0
1 -806 0
1 -807 0
1 -808 0
1 -809 0
1 -810 0
1 -811 0
1 -812 0
1 -813 0
1 -814 0
1 -815 0
1 -816 0
1 -817 0
1 -818 0
1 -819 0
1 -820 0
1 -821 0
1 -822 0
1 -823 0
1 -824 0
1 -825 0
1 -826 0
1 -827 0
1 -828 0
1 -829 0
1 -830 0
1 -831 0
1 -832 0
1 -833 0
1 -834 0
1 -835 0
1 -836 0
1 -837 0
1 -838 0
1 -839 0
1 -840 0
1 -841 0
1 -842 0
1 -843 0
1 -844 0
1 -845 0
1 -846 0
1 -847 0
1 -848 0
1 -849 0
1 -850 0
1 -851 0
1 -852 0
1 -853 0
1 -854 0
1 -855 0
1 -856 0
1 -857 0
1 -858 0
1 -859 0
1 -860 0
1 -861 0
1 -862 0
1 -863 0
1 -864 0
1 -865 0
1 -866 0
1 -867 0
1 -868 0
1 -869 0
1 -870 0
1 -871 0
1 -872 0
1 -873 0
1 -874 0
1 -875 0
1 -876 0
1 -877 0
1 -878 0
1 -879 0
1 -880 0
1 -881 0
1 -882 0
1 -883 0
1 -884 0
1 -885 0
1 -886 0
1 -887 0
1 -888 0
1 -889 0
1 -890 0
1 -891 0
1 -892 0
1 -893 0
1 -894 0
1 -895 0
1 -896 0
1 -897 0
1 -898 0
1 -899 0
1 -900 0
1 -901 0
1 -902 0
1 -903 0
1 -904 0
1 -905 0
1 -906 0
1 -907 0
1 -908 0
1 -909 0
1 -910 0
1 -911 0
1 -912 0
1 -913 0
1 -914 0
1 -915 0
1 -916 0
1 -917 0
1 -918 0
1 -919 0
1 -920 0
1 -921 0
1 -922 0
1 -923 0
1 -924 0
1 -925 0
1 -926 0
1 -927 0
1 -928 0
1 -929 0
1 -930 0
1 -931 0
1 -932 0
1 -933 0
1 -934 0
1 -935 0
1 -936 0
1 -937 0
1 -938 0
1 -939 0
1 -940 0
1 -941 0
1 -942 0
1 -943 0
1 -944 0
1 -945 0
1 -946 0
1 -947 0
1 -948 0
1 -949 0
1 -950 0
1 -951 0
1 -952 0
1 -953 0
1 -954 0
1 -955 0
1 -956 0
1 -957 0
1 -958 0
1 -959 0
1 -960 0
1 -961 0
1 -962 0
1 -963 0
1 -964 0
1 -965 0
1 -966 0
1 -967 0
1 -968 0
1 -969 0
1 -970 0
1 -971 0
1 -972 0
1 -973 0
1 -974 0
1 -975 0
1 -976 0
1 -977 0
1 -978 0
1 -979 0
1 -980 0
1 -981 0
1 -982 0
1 -983 0
1 -984 0
1 -985 0
1 -986 0
1 -987 0
1 -988 0
1 -989 0
1 -990 0
1 -991 0
1 -992 0
1 -993 0
1 -994 0
1 -995 0
1 -996 0
1 -997 0
1 -998 0
1 -999 0
1 -1000 0
1 -1001 0
1 -1002 0
1 -1003 0
1 -1004 0
1 -1005 0
1 -1006 0
1 -1007 0
1 -1008 0
1 -1009 0
1 -1010 0
1 -1011 0
1 -1012 0
1 -1013 0
1 -1014 0
1 -1015 0
1 -1016 0
1 -1017 0
1 -1018 0
1 -1019 0
1 -1020 0
856 -491 -1134 -1135 0
856 491 1134 -1135 0
856 -491 1134 1135 0
856 491 -1134 1135 0
856 -599 -1143 -1144 0
856 599 1143 -1144 0
856 -599 1143 1144 0
856 599 -1143 1144 0
856 -493 -1148 -1149 0
856 493 1148 -1149 0
856 -493 1148 1149 0
856 493 -1148 1149 0
856 -591 -1157 -1158 0
856 591 1157 -1158 0
856 -591 1157 1158 0
856 591 -1157 1158 0
856 -348 -400 -1161 0
856 348 400 -1161 0
856 348 -400 1161 0
856 -348 400 1161 0
856 -496 -1169 -1170 0
856 496 1169 -1170 0
856 -496 1169 1170 0
856 496 -1169 1170 0
856 -350 -392 -1175 0
856 350 392 -1175 0
856 350 -392 1175 0
856 -350 392 1175 0
856 -498 -1183 -1184 0
856 498 1183 -1184 0
856 -498 1183 1184 0
856 498 -1183 1184 0
856 -499 -1190 -1191 0
856 499 1190 -1191 0
856 -499 1190 1191 0
856 499 -1190 1191 0
856 -343 -395 -1196 0
856 343 395 -1196 0
856 343 -395 1196 0
856 -343 395 1196 0
856 -596 -1206 -1207 0
856 596 1206 -1207 0
856 -596 1206 1207 0
856 596 -1206 1207 0
856 -355 -407 -1210 0
856 355 407 -1210 0
856 355 -407 1210 0
856 -355 407 1210 0
856 -503 -1218 -1219 0
856 503 1218 -1219 0
856 -503 1218 1219 0
856 503 -1218 1219 0
856 -599 -1227 -1228 0
856 599 1227 -1228 0
856 -599 1227 1228 0
856 599 -1227 1228 0
856 -358 -410 -1231 0
856 358 410 -1231 0
856 358 -410 1231 0
856 -358 410 1231 0
856 -359 -401 -1238 0
856 359 401 -1238 0
856 359 -401 1238 0
856 -359 401 1238 0
856 -360 -402 -1245 0
856 360 402 -1245 0
856 360 -402 1245 0
856 -360 402 1245 0
856 -593 -1255 -1256 0
856 593 1255 -1256 0
856 -593 1255 1256 0
856 593 -1255 1256 0
856 -352 -404 -1259 0
856 352 404 -1259 0
856 352 -404 1259 0
856 -352 404 1259 0
856 -353 -405 -1266 0
856 353 405 -1266 0
856 353 -405 1266 0
856 -353 405 1266 0
856 -511 -1274 -1275 0
856 511 1274 -1275 0
856 -511 1274 1275 0
856 511 -1274 1275 0
856 -594 -1283 -1284 0
856 594 1283 -1284 0
856 -594 1283 1284 0
856 594 -1283 1284 0
856 -366 -418 -1287 0
856 366 418 -1287 0
856 366 -418 1287 0
856 -366 418 1287 0
856 -367 -419 -1294 0
856 367 419 -1294 0
856 367 -419 1294 0
856 -367 419 1294 0
856 -368 -420 -1301 0
856 368 420 -1301 0
856 368 -420 1301 0
856 -368 420 1301 0
856 -369 -411 -1308 0
856 369 411 -1308 0
856 369 -411 1308 0
856 -369 411 1308 0
856 -370 -412 -1315 0
856 370 412 -1315 0
856 370 -412 1315 0
856 -370 412 1315 0
856 -361 -413 -1322 0
856 361 413 -1322 0
856 361 -413 1322 0
856 -361 413 1322 0
856 -591 -1332 -1333 0
856 591 1332 -1333 0
856 -591 1332 1333 0
856 591 -1332 1333 0
856 -363 -415 -1336 0
856 363 415 -1336 0
856 363 -415 1336 0
856 -363 415 1336 0
856 -374 -426 -1343 0
856 374 426 -1343 0
856 374 -426 1343 0
856 -374 426 1343 0
856 -592 -1353 -1354 0
856 592 1353 -1354 0
856 -592 1353 1354 0
856 592 -1353 1354 0
856 -376 -428 -1357 0
856 376 428 -1357 0
856 376 -428 1357 0
856 -376 428 1357 0
856 -377 -429 -1364 0
856 377 429 -1364 0
856 377 -429 1364 0
856 -377 429 1364 0
856 -595 -1374 -1375 0
856 595 1374 -1375 0
856 -595 1374 1375 0
856 595 -1374 1375 0
856 -526 -1379 -1380 0
856 526 1379 -1380 0
856 -526 1379 1380 0
856 526 -1379 1380 0
856 -597 -1388 -1389 0
856 597 1388 -1389 0
856 -597 1388 1389 0
856 597 -1388 1389 0
856 -371 -423 -1392 0
856 371 423 -1392 0
856 371 -423 1392 0
856 -371 423 1392 0
856 -599 -1402 -1403 0
856 599 1402 -1403 0
856 -599 1402 1403 0
856 599 -1402 1403 0
856 -530 -1407 -1408 0
856 530 1407 -1408 0
856 -530 1407 1408 0
856 530 -1407 1408 0
856 -593 -1416 -1417 0
856 593 1416 -1417 0
856 -593 1416 1417 0
856 593 -1416 1417 0
856 -385 -437 -1420 0
856 385 437 -1420 0
856 385 -437 1420 0
856 -385 437 1420 0
856 -595 -1430 -1431 0
856 595 1430 -1431 0
856 -595 1430 1431 0
856 595 -1430 1431 0
856 -534 -1435 -1436 0
856 534 1435 -1436 0
856 -534 1435 1436 0
856 534 -1435 1436 0
856 -597 -1444 -1445 0
856 597 1444 -1445 0
856 -597 1444 1445 0
856 597 -1444 1445 0
856 -389 -431 -1448 0
856 389 431 -1448 0
856 389 -431 1448 0
856 -389 431 1448 0
856 -390 -432 -1455 0
856 390 432 -1455 0
856 390 -432 1455 0
856 -390 432 1455 0
856 -381 -433 -1462 0
856 381 433 -1462 0
856 381 -433 1462 0
856 -381 433 1462 0
856 -591 -1472 -1473 0
856 591 1472 -1473 0
856 -591 1472 1473 0
856 591 -1472 1473 0
856 -592 -1479 -1480 0
856 592 1479 -1480 0
856 -592 1479 1480 0
856 592 -1479 1480 0
856 -350 -399 -1483 0
856 350 399 -1483 0
856 350 -399 1483 0
856 -350 399 1483 0
856 -341 -400 -1490 0
856 341 400 -1490 0
856 341 -400 1490 0
856 -341 400 1490 0
856 -630 -1500 -1501 0
856 630 1500 -1501 0
856 -630 1500 1501 0
856 630 -1500 1501 0
856 -343 -392 -1504 0
856 343 392 -1504 0
856 343 -392 1504 0
856 -343 392 1504 0
856 -344 -393 -1511 0
856 344 393 -1511 0
856 344 -393 1511 0
856 -344 393 1511 0
856 -345 -394 -1518 0
856 345 394 -1518 0
856 345 -394 1518 0
856 -345 394 1518 0
856 -497 -1526 -1527 0
856 497 1526 -1527 0
856 -497 1526 1527 0
856 497 -1526 1527 0
856 -625 -1535 -1536 0
856 625 1535 -1536 0
856 -625 1535 1536 0
856 625 -1535 1536 0
856 -499 -1540 -1541 0
856 499 1540 -1541 0
856 -499 1540 1541 0
856 499 -1540 1541 0
856 -349 -398 -1546 0
856 349 398 -1546 0
856 349 -398 1546 0
856 -349 398 1546 0
856 -626 -1556 -1557 0
856 626 1556 -1557 0
856 -626 1556 1557 0
856 626 -1556 1557 0
856 -502 -1561 -1562 0
856 502 1561 -1562 0
856 -502 1561 1562 0
856 502 -1561 1562 0
856 -628 -1570 -1571 0
856 628 1570 -1571 0
856 -628 1570 1571 0
856 628 -1570 1571 0
856 -353 -402 -1574 0
856 353 402 -1574 0
856 353 -402 1574 0
856 -353 402 1574 0
856 -630 -1584 -1585 0
856 630 1584 -1585 0
856 -630 1584 1585 0
856 630 -1584 1585 0
856 -621 -1591 -1592 0
856 621 1591 -1592 0
856 -621 1591 1592 0
856 621 -1591 1592 0
856 -356 -405 -1595 0
856 356 405 -1595 0
856 356 -405 1595 0
856 -356 405 1595 0
856 -357 -406 -1602 0
856 357 406 -1602 0
856 357 -406 1602 0
856 -357 406 1602 0
856 -624 -1612 -1613 0
856 624 1612 -1613 0
856 -624 1612 1613 0
856 624 -1612 1613 0
856 -359 -408 -1616 0
856 359 408 -1616 0
856 359 -408 1616 0
856 -359 408 1616 0
856 -623 -1626 -1627 0
856 623 1626 -1627 0
856 -623 1626 1627 0
856 623 -1626 1627 0
856 -512 -1631 -1632 0
856 512 1631 -1632 0
856 -512 1631 1632 0
856 512 -1631 1632 0
856 -513 -1638 -1639 0
856 513 1638 -1639 0
856 -513 1638 1639 0
856 513 -1638 1639 0
856 -363 -412 -1644 0
856 363 412 -1644 0
856 363 -412 1644 0
856 -363 412 1644 0
856 -515 -1652 -1653 0
856 515 1652 -1653 0
856 -515 1652 1653 0
856 515 -1652 1653 0
856 -628 -1661 -1662 0
856 628 1661 -1662 0
856 -628 1661 1662 0
856 628 -1661 1662 0
856 -517 -1666 -1667 0
856 517 1666 -1667 0
856 -517 1666 1667 0
856 517 -1666 1667 0
856 -630 -1675 -1676 0
856 630 1675 -1676 0
856 -630 1675 1676 0
856 630 -1675 1676 0
856 -621 -1682 -1683 0
856 621 1682 -1683 0
856 -621 1682 1683 0
856 621 -1682 1683 0
856 -622 -1689 -1690 0
856 622 1689 -1690 0
856 -622 1689 1690 0
856 622 -1689 1690 0
856 -521 -1694 -1695 0
856 521 1694 -1695 0
856 -521 1694 1695 0
856 521 -1694 1695 0
856 -622 -1703 -1704 0
856 622 1703 -1704 0
856 -622 1703 1704 0
856 622 -1703 1704 0
856 -372 -421 -1707 0
856 372 421 -1707 0
856 372 -421 1707 0
856 -372 421 1707 0
856 -373 -422 -1714 0
856 373 422 -1714 0
856 373 -422 1714 0
856 -373 422 1714 0
856 -525 -1722 -1723 0
856 525 1722 -1723 0
856 -525 1722 1723 0
856 525 -1722 1723 0
856 -375 -424 -1728 0
856 375 424 -1728 0
856 375 -424 1728 0
856 -375 424 1728 0
856 -376 -425 -1735 0
856 376 425 -1735 0
856 376 -425 1735 0
856 -376 425 1735 0
856 -377 -426 -1742 0
856 377 426 -1742 0
856 377 -426 1742 0
856 -377 426 1742 0
856 -529 -1750 -1751 0
856 529 1750 -1751 0
856 -529 1750 1751 0
856 529 -1750 1751 0
856 -630 -1759 -1760 0
856 630 1759 -1760 0
856 -630 1759 1760 0
856 630 -1759 1760 0
856 -623 -1766 -1767 0
856 623 1766 -1767 0
856 -623 1766 1767 0
856 623 -1766 1767 0
856 -381 -440 -1770 0
856 381 440 -1770 0
856 381 -440 1770 0
856 -381 440 1770 0
856 -625 -1780 -1781 0
856 625 1780 -1781 0
856 -625 1780 1781 0
856 625 -1780 1781 0
856 -534 -1785 -1786 0
856 534 1785 -1786 0
856 -534 1785 1786 0
856 534 -1785 1786 0
856 -627 -1794 -1795 0
856 627 1794 -1795 0
856 -627 1794 1795 0
856 627 -1794 1795 0
856 -385 -434 -1798 0
856 385 434 -1798 0
856 385 -434 1798 0
856 -385 434 1798 0
856 -537 -1806 -1807 0
856 537 1806 -1807 0
856 -537 1806 1807 0
856 537 -1806 1807 0
856 -387 -436 -1812 0
856 387 436 -1812 0
856 387 -436 1812 0
856 -387 436 1812 0
856 -621 -1822 -1823 0
856 621 1822 -1823 0
856 -621 1822 1823 0
856 621 -1822 1823 0
856 -622 -1829 -1830 0
856 622 1829 -1830 0
856 -622 1829 1830 0
856 622 -1829 1830 0
856 -658 -1836 -1837 0
856 658 1836 -1837 0
856 -658 1836 1837 0
856 658 -1836 1837 0
856 -348 -394 -1840 0
856 348 394 -1840 0
856 348 -394 1840 0
856 -348 394 1840 0
856 -349 -395 -1847 0
856 349 395 -1847 0
856 349 -395 1847 0
856 -349 395 1847 0
856 -350 -396 -1854 0
856 350 396 -1854 0
856 350 -396 1854 0
856 -350 396 1854 0
856 -496 -1862 -1863 0
856 496 1862 -1863 0
856 -496 1862 1863 0
856 496 -1862 1863 0
856 -497 -1869 -1870 0
856 497 1869 -1870 0
856 -497 1869 1870 0
856 497 -1869 1870 0
856 -343 -399 -1875 0
856 343 399 -1875 0
856 343 -399 1875 0
856 -343 399 1875 0
856 -655 -1885 -1886 0
856 655 1885 -1886 0
856 -655 1885 1886 0
856 655 -1885 1886 0
856 -500 -1890 -1891 0
856 500 1890 -1891 0
856 -500 1890 1891 0
856 500 -1890 1891 0
856 -491 -1897 -1898 0
856 491 1897 -1898 0
856 -491 1897 1898 0
856 491 -1897 1898 0
856 -656 -1906 -1907 0
856 656 1906 -1907 0
856 -656 1906 1907 0
856 656 -1906 1907 0
856 -657 -1913 -1914 0
856 657 1913 -1914 0
856 -657 1913 1914 0
856 657 -1913 1914 0
856 -658 -1920 -1921 0
856 658 1920 -1921 0
856 -658 1920 1921 0
856 658 -1920 1921 0
856 -505 -1925 -1926 0
856 505 1925 -1926 0
856 -505 1925 1926 0
856 505 -1925 1926 0
856 -351 -407 -1931 0
856 351 407 -1931 0
856 351 -407 1931 0
856 -351 407 1931 0
856 -651 -1941 -1942 0
856 651 1941 -1942 0
856 -651 1941 1942 0
856 651 -1941 1942 0
856 -508 -1946 -1947 0
856 508 1946 -1947 0
856 -508 1946 1947 0
856 508 -1946 1947 0
856 -354 -410 -1952 0
856 354 410 -1952 0
856 354 -410 1952 0
856 -354 410 1952 0
856 -355 -401 -1959 0
856 355 401 -1959 0
856 355 -401 1959 0
856 -355 401 1959 0
856 -501 -1967 -1968 0
856 501 1967 -1968 0
856 -501 1967 1968 0
856 501 -1967 1968 0
856 -512 -1974 -1975 0
856 512 1974 -1975 0
856 -512 1974 1975 0
856 512 -1974 1975 0
856 -513 -1981 -1982 0
856 513 1981 -1982 0
856 -513 1981 1982 0
856 513 -1981 1982 0
856 -369 -415 -1987 0
856 369 415 -1987 0
856 369 -415 1987 0
856 -369 415 1987 0
856 -656 -1997 -1998 0
856 656 1997 -1998 0
856 -656 1997 1998 0
856 656 -1997 1998 0
856 -516 -2002 -2003 0
856 516 2002 -2003 0
856 -516 2002 2003 0
856 516 -2002 2003 0
856 -517 -2009 -2010 0
856 517 2009 -2010 0
856 -517 2009 2010 0
856 517 -2009 2010 0
856 -659 -2018 -2019 0
856 659 2018 -2019 0
856 -659 2018 2019 0
856 659 -2018 2019 0
856 -660 -2025 -2026 0
856 660 2025 -2026 0
856 -660 2025 2026 0
856 660 -2025 2026 0
856 -365 -411 -2029 0
856 365 411 -2029 0
856 365 -411 2029 0
856 -365 411 2029 0
856 -366 -412 -2036 0
856 366 412 -2036 0
856 366 -412 2036 0
856 -366 412 2036 0
856 -651 -2046 -2047 0
856 651 2046 -2047 0
856 -651 2046 2047 0
856 651 -2046 2047 0
856 -523 -2051 -2052 0
856 523 2051 -2052 0
856 -523 2051 2052 0
856 523 -2051 2052 0
856 -653 -2060 -2061 0
856 653 2060 -2061 0
856 -653 2060 2061 0
856 653 -2060 2061 0
856 -380 -426 -2064 0
856 380 426 -2064 0
856 380 -426 2064 0
856 -380 426 2064 0
856 -371 -427 -2071 0
856 371 427 -2071 0
856 371 -427 2071 0
856 -371 427 2071 0
856 -372 -428 -2078 0
856 372 428 -2078 0
856 372 -428 2078 0
856 -372 428 2078 0
856 -657 -2088 -2089 0
856 657 2088 -2089 0
856 -657 2088 2089 0
856 657 -2088 2089 0
856 -529 -2093 -2094 0
856 529 2093 -2094 0
856 -529 2093 2094 0
856 529 -2093 2094 0
856 -659 -2102 -2103 0
856 659 2102 -2103 0
856 -659 2102 2103 0
856 659 -2102 2103 0
856 -376 -422 -2106 0
856 376 422 -2106 0
856 376 -422 2106 0
856 -376 422 2106 0
856 -532 -2114 -2115 0
856 532 2114 -2115 0
856 -532 2114 2115 0
856 532 -2114 2115 0
856 -533 -2121 -2122 0
856 533 2121 -2122 0
856 -533 2121 2122 0
856 533 -2121 2122 0
856 -655 -2130 -2131 0
856 655 2130 -2131 0
856 -655 2130 2131 0
856 655 -2130 2131 0
856 -535 -2135 -2136 0
856 535 2135 -2136 0
856 -535 2135 2136 0
856 535 -2135 2136 0
856 -536 -2142 -2143 0
856 536 2142 -2143 0
856 -536 2142 2143 0
856 536 -2142 2143 0
856 -658 -2151 -2152 0
856 658 2151 -2152 0
856 -658 2151 2152 0
856 658 -2151 2152 0
856 -659 -2158 -2159 0
856 659 2158 -2159 0
856 -659 2158 2159 0
856 659 -2158 2159 0
856 -384 -440 -2162 0
856 384 440 -2162 0
856 384 -440 2162 0
856 -384 440 2162 0
856 -385 -431 -2169 0
856 385 431 -2169 0
856 385 -431 2169 0
856 -385 431 2169 0
856 -386 -432 -2176 0
856 386 432 -2176 0
856 386 -432 2176 0
856 -386 432 2176 0
856 -258 -2186 -2187 0
856 258 2186 -2187 0
856 -258 2186 2187 0
856 258 -2186 2187 0
856 -32 -2191 -2192 0
856 32 2191 -2192 0
856 -32 2191 2192 0
856 32 -2191 2192 0
856 -6 -18 -2197 0
856 6 18 -2197 0
856 6 -18 2197 0
856 -6 18 2197 0
856 -251 -2207 -2208 0
856 251 2207 -2208 0
856 -251 2207 2208 0
856 251 -2207 2208 0
856 -252 -2214 -2215 0
856 252 2214 -2215 0
856 -252 2214 2215 0
856 252 -2214 2215 0
856 -253 -2221 -2222 0
856 253 2221 -2222 0
856 -253 2221 2222 0
856 253 -2221 2222 0
856 -37 -2226 -2227 0
856 37 2226 -2227 0
856 -37 2226 2227 0
856 37 -2226 2227 0
856 -1 -13 -2232 0
856 1 13 -2232 0
856 1 -13 2232 0
856 -1 13 2232 0
856 -256 -2242 -2243 0
856 256 2242 -2243 0
856 -256 2242 2243 0
856 256 -2242 2243 0
856 -40 -2247 -2248 0
856 40 2247 -2248 0
856 -40 2247 2248 0
856 40 -2247 2248 0
856 -31 -2254 -2255 0
856 31 2254 -2255 0
856 -31 2254 2255 0
856 31 -2254 2255 0
856 -1 -20 -2260 0
856 1 20 -2260 0
856 1 -20 2260 0
856 -1 20 2260 0
856 -2 -11 -2267 0
856 2 11 -2267 0
856 2 -11 2267 0
856 -2 11 2267 0
856 -3 -12 -2274 0
856 3 12 -2274 0
856 3 -12 2274 0
856 -3 12 2274 0
856 -262 -2284 -2285 0
856 262 2284 -2285 0
856 -262 2284 2285 0
856 262 -2284 2285 0
856 -5 -14 -2288 0
856 5 14 -2288 0
856 5 -14 2288 0
856 -5 14 2288 0
856 -37 -2296 -2297 0
856 37 2296 -2297 0
856 -37 2296 2297 0
856 37 -2296 2297 0
856 -7 -16 -2302 0
856 7 16 -2302 0
856 7 -16 2302 0
856 -7 16 2302 0
856 -8 -17 -2309 0
856 8 17 -2309 0
856 8 -17 2309 0
856 -8 17 2309 0
856 -9 -18 -2316 0
856 9 18 -2316 0
856 9 -18 2316 0
856 -9 18 2316 0
856 -7 -13 -2323 0
856 7 13 -2323 0
856 7 -13 2323 0
856 -7 13 2323 0
856 -279 -2333 -2334 0
856 279 2333 -2334 0
856 -279 2333 2334 0
856 279 -2333 2334 0
856 -34 -2338 -2339 0
856 34 2338 -2339 0
856 -34 2338 2339 0
856 34 -2338 2339 0
856 -35 -2345 -2346 0
856 35 2345 -2346 0
856 -35 2345 2346 0
856 35 -2345 2346 0
856 -36 -2352 -2353 0
856 36 2352 -2353 0
856 -36 2352 2353 0
856 36 -2352 2353 0
856 -37 -2359 -2360 0
856 37 2359 -2360 0
856 -37 2359 2360 0
856 37 -2359 2360 0
856 -3 -19 -2365 0
856 3 19 -2365 0
856 3 -19 2365 0
856 -3 19 2365 0
856 -4 -20 -2372 0
856 4 20 -2372 0
856 4 -20 2372 0
856 -4 20 2372 0
856 -276 -2382 -2383 0
856 276 2382 -2383 0
856 -276 2382 2383 0
856 276 -2382 2383 0
856 -6 -12 -2386 0
856 6 12 -2386 0
856 6 -12 2386 0
856 -6 12 2386 0
856 -81 -2394 -2395 0
856 81 2394 -2395 0
856 -81 2394 2395 0
856 81 -2394 2395 0
856 -55 -67 -2400 0
856 55 67 -2400 0
856 55 -67 2400 0
856 -55 67 2400 0
856 -56 -68 -2407 0
856 56 68 -2407 0
856 56 -68 2407 0
856 -56 68 2407 0
856 -57 -69 -2414 0
856 57 69 -2414 0
856 57 -69 2414 0
856 -57 69 2414 0
856 -85 -2422 -2423 0
856 85 2422 -2423 0
856 -85 2422 2423 0
856 85 -2422 2423 0
856 -59 -61 -2428 0
856 59 61 -2428 0
856 59 -61 2428 0
856 -59 61 2428 0
856 -60 -62 -2435 0
856 60 62 -2435 0
856 60 -62 2435 0
856 -60 62 2435 0
856 -253 -2445 -2446 0
856 253 2445 -2446 0
856 -253 2445 2446 0
856 253 -2445 2446 0
856 -52 -64 -2449 0
856 52 64 -2449 0
856 52 -64 2449 0
856 -52 64 2449 0
856 -255 -2459 -2460 0
856 255 2459 -2460 0
856 -255 2459 2460 0
856 255 -2459 2460 0
856 -60 -69 -2463 0
856 60 69 -2463 0
856 60 -69 2463 0
856 -60 69 2463 0
856 -51 -70 -2470 0
856 51 70 -2470 0
856 51 -70 2470 0
856 -51 70 2470 0
856 -52 -61 -2477 0
856 52 61 -2477 0
856 52 -61 2477 0
856 -52 61 2477 0
856 -53 -62 -2484 0
856 53 62 -2484 0
856 53 -62 2484 0
856 -53 62 2484 0
856 -270 -2494 -2495 0
856 270 2494 -2495 0
856 -270 2494 2495 0
856 270 -2494 2495 0
856 -261 -2501 -2502 0
856 261 2501 -2502 0
856 -261 2501 2502 0
856 261 -2501 2502 0
856 -262 -2508 -2509 0
856 262 2508 -2509 0
856 -262 2508 2509 0
856 262 -2508 2509 0
856 -57 -66 -2512 0
856 57 66 -2512 0
856 57 -66 2512 0
856 -57 66 2512 0
856 -264 -2522 -2523 0
856 264 2522 -2523 0
856 -264 2522 2523 0
856 264 -2522 2523 0
856 -59 -68 -2526 0
856 59 68 -2526 0
856 59 -68 2526 0
856 -59 68 2526 0
856 -276 -2536 -2537 0
856 276 2536 -2537 0
856 -276 2536 2537 0
856 276 -2536 2537 0
856 -58 -64 -2540 0
856 58 64 -2540 0
856 58 -64 2540 0
856 -58 64 2540 0
856 -84 -2548 -2549 0
856 84 2548 -2549 0
856 -84 2548 2549 0
856 84 -2548 2549 0
856 -85 -2555 -2556 0
856 85 2555 -2556 0
856 -85 2555 2556 0
856 85 -2555 2556 0
856 -51 -67 -2561 0
856 51 67 -2561 0
856 51 -67 2561 0
856 -51 67 2561 0
856 -271 -2571 -2572 0
856 271 2571 -2572 0
856 -271 2571 2572 0
856 271 -2571 2572 0
856 -272 -2578 -2579 0
856 272 2578 -2579 0
856 -272 2578 2579 0
856 272 -2578 2579 0
856 -273 -2585 -2586 0
856 273 2585 -2586 0
856 -273 2585 2586 0
856 273 -2585 2586 0
856 -55 -61 -2589 0
856 55 61 -2589 0
856 55 -61 2589 0
856 -55 61 2589 0
856 -275 -2599 -2600 0
856 275 2599 -2600 0
856 -275 2599 2600 0
856 275 -2599 2600 0
856 -131 -2604 -2605 0
856 131 2604 -2605 0
856 -131 2604 2605 0
856 131 -2604 2605 0
856 -132 -2611 -2612 0
856 132 2611 -2612 0
856 -132 2611 2612 0
856 132 -2611 2612 0
856 -255 -2620 -2621 0
856 255 2620 -2621 0
856 -255 2620 2621 0
856 255 -2620 2621 0
856 -134 -2625 -2626 0
856 134 2625 -2626 0
856 -134 2625 2626 0
856 134 -2625 2626 0
856 -135 -2632 -2633 0
856 135 2632 -2633 0
856 -135 2632 2633 0
856 135 -2632 2633 0
856 -109 -111 -2638 0
856 109 111 -2638 0
856 109 -111 2638 0
856 -109 111 2638 0
856 -110 -112 -2645 0
856 110 112 -2645 0
856 110 -112 2645 0
856 -110 112 2645 0
856 -101 -113 -2652 0
856 101 113 -2652 0
856 101 -113 2652 0
856 -101 113 2652 0
856 -139 -2660 -2661 0
856 139 2660 -2661 0
856 -139 2660 2661 0
856 139 -2660 2661 0
856 -140 -2667 -2668 0
856 140 2667 -2668 0
856 -140 2667 2668 0
856 140 -2667 2668 0
856 -263 -2676 -2677 0
856 263 2676 -2677 0
856 -263 2676 2677 0
856 263 -2676 2677 0
856 -101 -120 -2680 0
856 101 120 -2680 0
856 101 -120 2680 0
856 -101 120 2680 0
856 -102 -111 -2687 0
856 102 111 -2687 0
856 102 -111 2687 0
856 -102 111 2687 0
856 -103 -112 -2694 0
856 103 112 -2694 0
856 103 -112 2694 0
856 -103 112 2694 0
856 -267 -2704 -2705 0
856 267 2704 -2705 0
856 -267 2704 2705 0
856 267 -2704 2705 0
856 -268 -2711 -2712 0
856 268 2711 -2712 0
856 -268 2711 2712 0
856 268 -2711 2712 0
856 -106 -115 -2715 0
856 106 115 -2715 0
856 106 -115 2715 0
856 -106 115 2715 0
856 -107 -116 -2722 0
856 107 116 -2722 0
856 107 -116 2722 0
856 -107 116 2722 0
856 -261 -2732 -2733 0
856 261 2732 -2733 0
856 -261 2732 2733 0
856 261 -2732 2733 0
856 -140 -2737 -2738 0
856 140 2737 -2738 0
856 -140 2737 2738 0
856 140 -2737 2738 0
856 -132 -2744 -2745 0
856 132 2744 -2745 0
856 -132 2744 2745 0
856 132 -2744 2745 0
856 -108 -114 -2750 0
856 108 114 -2750 0
856 108 -114 2750 0
856 -108 114 2750 0
856 -275 -2760 -2761 0
856 275 2760 -2761 0
856 -275 2760 2761 0
856 275 -2760 2761 0
856 -135 -2765 -2766 0
856 135 2765 -2766 0
856 -135 2765 2766 0
856 135 -2765 2766 0
856 -277 -2774 -2775 0
856 277 2774 -2775 0
856 -277 2774 2775 0
856 277 -2774 2775 0
856 -102 -118 -2778 0
856 102 118 -2778 0
856 102 -118 2778 0
856 -102 118 2778 0
856 -279 -2788 -2789 0
856 279 2788 -2789 0
856 -279 2788 2789 0
856 279 -2788 2789 0
856 -139 -2793 -2794 0
856 139 2793 -2794 0
856 -139 2793 2794 0
856 139 -2793 2794 0
856 -140 -2800 -2801 0
856 140 2800 -2801 0
856 -140 2800 2801 0
856 140 -2800 2801 0
856 -106 -112 -2806 0
856 106 112 -2806 0
856 106 -112 2806 0
856 -106 112 2806 0
856 -251 -2816 -2817 0
856 251 2816 -2817 0
856 -251 2816 2817 0
856 251 -2816 2817 0
856 -182 -2821 -2822 0
856 182 2821 -2822 0
856 -182 2821 2822 0
856 182 -2821 2822 0
856 -183 -2828 -2829 0
856 183 2828 -2829 0
856 -183 2828 2829 0
856 183 -2828 2829 0
856 -157 -169 -2834 0
856 157 169 -2834 0
856 157 -169 2834 0
856 -157 169 2834 0
856 -255 -2844 -2845 0
856 255 2844 -2845 0
856 -255 2844 2845 0
856 255 -2844 2845 0
856 -186 -2849 -2850 0
856 186 2849 -2850 0
856 -186 2849 2850 0
856 186 -2849 2850 0
856 -187 -2856 -2857 0
856 187 2856 -2857 0
856 -187 2856 2857 0
856 187 -2856 2857 0
856 -151 -163 -2862 0
856 151 163 -2862 0
856 151 -163 2862 0
856 -151 163 2862 0
856 -259 -2872 -2873 0
856 259 2872 -2873 0
856 -259 2872 2873 0
856 259 -2872 2873 0
856 -153 -165 -2876 0
856 153 165 -2876 0
856 153 -165 2876 0
856 -153 165 2876 0
856 -181 -2884 -2885 0
856 181 2884 -2885 0
856 -181 2884 2885 0
856 181 -2884 2885 0
856 -151 -170 -2890 0
856 151 170 -2890 0
856 151 -170 2890 0
856 -151 170 2890 0
856 -263 -2900 -2901 0
856 263 2900 -2901 0
856 -263 2900 2901 0
856 263 -2900 2901 0
856 -153 -162 -2904 0
856 153 162 -2904 0
856 153 -162 2904 0
856 -153 162 2904 0
856 -154 -163 -2911 0
856 154 163 -2911 0
856 154 -163 2911 0
856 -154 163 2911 0
856 -186 -2919 -2920 0
856 186 2919 -2920 0
856 -186 2919 2920 0
856 186 -2919 2920 0
856 -156 -165 -2925 0
856 156 165 -2925 0
856 156 -165 2925 0
856 -156 165 2925 0
856 -157 -166 -2932 0
856 157 166 -2932 0
856 157 -166 2932 0
856 -157 166 2932 0
856 -158 -167 -2939 0
856 158 167 -2939 0
856 158 -167 2939 0
856 -158 167 2939 0
856 -270 -2949 -2950 0
856 270 2949 -2950 0
856 -270 2949 2950 0
856 270 -2949 2950 0
856 -182 -2954 -2955 0
856 182 2954 -2955 0
856 -182 2954 2955 0
856 182 -2954 2955 0
856 -158 -164 -2960 0
856 158 164 -2960 0
856 158 -164 2960 0
856 -158 164 2960 0
856 -273 -2970 -2971 0
856 273 2970 -2971 0
856 -273 2970 2971 0
856 273 -2970 2971 0
856 -274 -2977 -2978 0
856 274 2977 -2978 0
856 -274 2977 2978 0
856 274 -2977 2978 0
856 -275 -2984 -2985 0
856 275 2984 -2985 0
856 -275 2984 2985 0
856 275 -2984 2985 0
856 -276 -2991 -2992 0
856 276 2991 -2992 0
856 -276 2991 2992 0
856 276 -2991 2992 0
856 -277 -2998 -2999 0
856 277 2998 -2999 0
856 -277 2998 2999 0
856 277 -2998 2999 0
856 -278 -3005 -3006 0
856 278 3005 -3006 0
856 -278 3005 3006 0
856 278 -3005 3006 0
856 -155 -161 -3009 0
856 155 161 -3009 0
856 155 -161 3009 0
856 -155 161 3009 0
856 -156 -162 -3016 0
856 156 162 -3016 0
856 156 -162 3016 0
856 -156 162 3016 0
856 -253 -3026 -3027 0
856 253 3026 -3027 0
856 -253 3026 3027 0
856 253 -3026 3027 0
856 -232 -3031 -3032 0
856 232 3031 -3032 0
856 -232 3031 3032 0
856 232 -3031 3032 0
856 -206 -218 -3037 0
856 206 218 -3037 0
856 206 -218 3037 0
856 -206 218 3037 0
856 -207 -219 -3044 0
856 207 219 -3044 0
856 207 -219 3044 0
856 -207 219 3044 0
856 -235 -3052 -3053 0
856 235 3052 -3053 0
856 -235 3052 3053 0
856 235 -3052 3053 0
856 -258 -3061 -3062 0
856 258 3061 -3062 0
856 -258 3061 3062 0
856 258 -3061 3062 0
856 -259 -3068 -3069 0
856 259 3068 -3069 0
856 -259 3068 3069 0
856 259 -3068 3069 0
856 -260 -3075 -3076 0
856 260 3075 -3076 0
856 -260 3075 3076 0
856 260 -3075 3076 0
856 -251 -3082 -3083 0
856 251 3082 -3083 0
856 -251 3082 3083 0
856 251 -3082 3083 0
856 -203 -215 -3086 0
856 203 215 -3086 0
856 203 -215 3086 0
856 -203 215 3086 0
856 -263 -3096 -3097 0
856 263 3096 -3097 0
856 -263 3096 3097 0
856 263 -3096 3097 0
856 -201 -220 -3100 0
856 201 220 -3100 0
856 201 -220 3100 0
856 -201 220 3100 0
856 -202 -211 -3107 0
856 202 211 -3107 0
856 202 -211 3107 0
856 -202 211 3107 0
856 -266 -3117 -3118 0
856 266 3117 -3118 0
856 -266 3117 3118 0
856 266 -3117 3118 0
856 -267 -3124 -3125 0
856 267 3124 -3125 0
856 -267 3124 3125 0
856 267 -3124 3125 0
856 -205 -214 -3128 0
856 205 214 -3128 0
856 205 -214 3128 0
856 -205 214 3128 0
856 -237 -3136 -3137 0
856 237 3136 -3137 0
856 -237 3136 3137 0
856 237 -3136 3137 0
856 -238 -3143 -3144 0
856 238 3143 -3144 0
856 -238 3143 3144 0
856 238 -3143 3144 0
856 -261 -3152 -3153 0
856 261 3152 -3153 0
856 -261 3152 3153 0
856 261 -3152 3153 0
856 -209 -218 -3156 0
856 209 218 -3156 0
856 209 -218 3156 0
856 -209 218 3156 0
856 -232 -3164 -3165 0
856 232 3164 -3165 0
856 -232 3164 3165 0
856 232 -3164 3165 0
856 -274 -3173 -3174 0
856 274 3173 -3174 0
856 -274 3173 3174 0
856 274 -3173 3174 0
856 -275 -3180 -3181 0
856 275 3180 -3181 0
856 -275 3180 3181 0
856 275 -3180 3181 0
856 -210 -216 -3184 0
856 210 216 -3184 0
856 210 -216 3184 0
856 -210 216 3184 0
856 -277 -3194 -3195 0
856 277 3194 -3195 0
856 -277 3194 3195 0
856 277 -3194 3195 0
856 -278 -3201 -3202 0
856 278 3201 -3202 0
856 -278 3201 3202 0
856 278 -3201 3202 0
856 -279 -3208 -3209 0
856 279 3208 -3209 0
856 -279 3208 3209 0
856 279 -3208 3209 0
856 -204 -220 -3212 0
856 204 220 -3212 0
856 204 -220 3212 0
856 -204 220 3212 0
856 -271 -3222 -3223 0
856 271 3222 -3223 0
856 -271 3222 3223 0
856 271 -3222 3223 0
856 -272 -3229 -3230 0
856 272 3229 -3230 0
856 -272 3229 3230 0
856 272 -3229 3230 0
856 1 2 3 4 5 6 7 8 9 10 11 12 13 14 15 16 17 18 19 20 21 22 23 24 25 26 27 28 29 30 31 32 33 34 35 36 37 38 39 40 41 42 43 44 45 46 47 48 49 50 51 52 53 54 55 56 57 58 59 60 61 62 63 64 65 66 67 68 69 70 71 72 73 74 75 76 77 78 79 80 81 82 83 84 85 86 87 88 89 90 91 92 93 94 95 96 97 98 99 100 101 102 103 104 105 106 107 108 109 110 111 112 113 114 115 116 117 118 119 120 121 122 123 124 125 126 127 128 129 130 131 132 133 134 135 136 137 138 139 140 141 142 143 144 145 146 147 148 149 150 151 152 153 154 155 156 157 158 159 160 161 162 163 164 165 166 167 168 169 170 171 172 173 174 175 176 177 178 179 180 181 182 183 184 185 186 187 188 189 190 191 192 193 194 195 196 197 198 199 200 201 202 203 204 205 206 207 208 209 210 211 212 213 214 215 216 217 218 219 220 221 222 223 224 225 226 227 228 229 230 231 232 233 234 235 236 237 238 239 240 241 242 243 244 245 246 247 248 249 250 251 252 253 254 255 256 257 258 259 260 261 262 263 264 265 266 267 268 269 270 271 272 273 274 275 276 277 278 279 280 281 282 283 284 285 286 287 288 289 290 291 292 293 294 295 296 297 298 299 300 301 302 303 304 305 306 307 308 309 310 311 312 313 314 315 316 317 318 319 320 321 322 323 324 325 326 327 328 329 330 331 332 333 334 335 336 337 338 339 340 341 342 343 344 345 346 347 348 349 350 351 352 353 354 355 356 357 358 359 360 361 362 363 364 365 366 367 368 369 370 371 372 373 374 375 376 377 378 379 380 381 382 383 384 385 386 387 388 389 390 391 392 393 394 395 396 397 398 399 400 401 402 403 404 405 406 407 408 409 410 411 412 413 414 415 416 417 418 419 420 421 422 423 424 425 426 427 428 429 430 431 432 433 434 435 436 437 438 439 440 441 442 443 444 445 446 447 448 449 450 451 452 453 454 455 456 457 458 459 460 461 462 463 464 465 466 467 468 469 470 471 472 473 474 475 476 477 478 479 480 481 482 483 484 485 486 487 488 489 490 491 492 493 494 495 496 497 498 499 500 501 502 503 504 505 506 507 508 509 510 511 512 513 514 515 516 517 518 519 520 521 522 523 524 525 526 527 528 529 530 531 532 533 534 535 536 537 538 539 540 541 542 543 544 545 546 547 548 549 550 551 552 553 554 555 556 557 558 559 560 561 562 563 564 565 566 567 568 569 570 571 572 573 574 575 576 577 578 579 580 581 582 583 584 585 586 587 588 589 590 591 592 593 594 595 596 597 598 599 600 601 602 603 604 605 606 607 608 609 610 611 612 613 614 615 616 617 618 619 620 621 622 623 624 625 626 627 628 629 630 631 632 633 634 635 636 637 638 639 640 641 642 643 644 645 646 647 648 649 650 651 652 653 654 655 656 657 658 659 660 661 662 663 664 665 666 667 668 669 670 671 672 673 674 675 676 677 678 679 680 0
856 -4 -3234 -3235 0
856 4 3234 -3235 0
856 -4 3234 3235 0
856 4 -3234 3235 0
856 -7 -3237 -3238 0
856 7 3237 -3238 0
856 -7 3237 3238 0
856 7 -3237 3238 0
856 -54 -3244 -3245 0
856 54 3244 -3245 0
856 -54 3244 3245 0
856 54 -3244 3245 0
856 -57 -3247 -3248 0
856 57 3247 -3248 0
856 -57 3247 3248 0
856 57 -3247 3248 0
856 -18 -3258 -3259 0
856 18 3258 -3259 0
856 -18 3258 3259 0
856 18 -3258 3259 0
856 -69 -3269 -3270 0
856 69 3269 -3270 0
856 -69 3269 3270 0
856 69 -3269 3270 0
856 -31 -32 -3293 0
856 31 32 -3293 0
856 31 -32 3293 0
856 -31 32 3293 0
856 -35 -3295 -3296 0
856 35 3295 -3296 0
856 -35 3295 3296 0
856 35 -3295 3296 0
856 -38 -3298 -3299 0
856 38 3298 -3299 0
856 -38 3298 3299 0
856 38 -3298 3299 0
856 -81 -3301 -3302 0
856 81 3301 -3302 0
856 -81 3301 3302 0
856 81 -3301 3302 0
856 -86 -3306 -3307 0
856 86 3306 -3307 0
856 -86 3306 3307 0
856 86 -3306 3307 0
856 -89 -3309 -3310 0
856 89 3309 -3310 0
856 -89 3309 3310 0
856 89 -3309 3310 0
856 -102 -3322 -3323 0
856 102 3322 -3323 0
856 -102 3322 3323 0
856 102 -3322 3323 0
856 -107 -3327 -3328 0
856 107 3327 -3328 0
856 -107 3327 3328 0
856 107 -3327 3328 0
856 -14 -3334 -3335 0
856 14 3334 -3335 0
856 -14 3334 3335 0
856 14 -3334 3335 0
856 -111 -3341 -3342 0
856 111 3341 -3342 0
856 -111 3341 3342 0
856 111 -3341 3342 0
856 -24 -3354 -3355 0
856 24 3354 -3355 0
856 -24 3354 3355 0
856 24 -3354 3355 0
856 -125 -3365 -3366 0
856 125 3365 -3366 0
856 -125 3365 3366 0
856 125 -3365 3366 0
856 -31 -32 -3373 0
856 31 32 -3373 0
856 31 -32 3373 0
856 -31 32 3373 0
856 -35 -3375 -3376 0
856 35 3375 -3376 0
856 -35 3375 3376 0
856 35 -3375 3376 0
856 -136 -3386 -3387 0
856 136 3386 -3387 0
856 -136 3386 3387 0
856 136 -3386 3387 0
856 -139 -3389 -3390 0
856 139 3389 -3390 0
856 -139 3389 3390 0
856 139 -3389 3390 0
856 -2 -7 -3393 0
856 2 7 -3393 0
856 2 -7 3393 0
856 -2 7 3393 0
856 -52 -3397 -3398 0
856 52 3397 -3398 0
856 -52 3397 3398 0
856 52 -3397 3398 0
856 -7 -3424 -3425 0
856 7 3424 -3425 0
856 -7 3424 3425 0
856 7 -3424 3425 0
856 -59 -3429 -3430 0
856 59 3429 -3430 0
856 -59 3429 3430 0
856 59 -3429 3430 0
856 -4 -6 -3437 0
856 4 6 -3437 0
856 4 -6 3437 0
856 -4 6 3437 0
856 -9 -3439 -3440 0
856 9 3439 -3440 0
856 -9 3439 3440 0
856 9 -3439 3440 0
856 -4 -3456 -3457 0
856 4 3456 -3457 0
856 -4 3456 3457 0
856 4 -3456 3457 0
856 -59 -3461 -3462 0
856 59 3461 -3462 0
856 -59 3461 3462 0
856 59 -3461 3462 0
856 -3 -4 -3487 0
856 3 4 -3487 0
856 3 -4 3487 0
856 -3 4 3487 0
856 -57 -3493 -3494 0
856 57 3493 -3494 0
856 -57 3493 3494 0
856 57 -3493 3494 0
856 -52 -3522 -3523 0
856 52 3522 -3523 0
856 -52 3522 3523 0
856 52 -3522 3523 0
856 -58 -3525 -3526 0
856 58 3525 -3526 0
856 -58 3525 3526 0
856 58 -3525 3526 0
856 -12 -17 -3549 0
856 12 17 -3549 0
856 12 -17 3549 0
856 -12 17 3549 0
856 -20 -3551 -3552 0
856 20 3551 -3552 0
856 -20 3551 3552 0
856 20 -3551 3552 0
856 -63 -3554 -3555 0
856 63 3554 -3555 0
856 -63 3554 3555 0
856 63 -3554 3555 0
856 -69 -3557 -3558 0
856 69 3557 -3558 0
856 -69 3557 3558 0
856 69 -3557 3558 0
856 -12 -14 -3565 0
856 12 14 -3565 0
856 12 -14 3565 0
856 -12 14 3565 0
856 -17 -3567 -3568 0
856 17 3567 -3568 0
856 -17 3567 3568 0
856 17 -3567 3568 0
856 -17 -3580 -3581 0
856 17 3580 -3581 0
856 -17 3580 3581 0
856 17 -3580 3581 0
856 -119 -3589 -3590 0
856 119 3589 -3590 0
856 -119 3589 3590 0
856 119 -3589 3590 0
856 -18 -3594 -3595 0
856 18 3594 -3595 0
856 -18 3594 3595 0
856 18 -3594 3595 0
856 -115 -3605 -3606 0
856 115 3605 -3606 0
856 -115 3605 3606 0
856 115 -3605 3606 0
856 -11 -12 -3611 0
856 11 12 -3611 0
856 11 -12 3611 0
856 -11 12 3611 0
856 -64 -3615 -3616 0
856 64 3615 -3616 0
856 -64 3615 3616 0
856 64 -3615 3616 0
856 -112 -3618 -3619 0
856 112 3618 -3619 0
856 -112 3618 3619 0
856 112 -3618 3619 0
856 -116 -3621 -3622 0
856 116 3621 -3622 0
856 -116 3621 3622 0
856 116 -3621 3622 0
856 -15 -3628 -3629 0
856 15 3628 -3629 0
856 -15 3628 3629 0
856 15 -3628 3629 0
856 -63 -3631 -3632 0
856 63 3631 -3632 0
856 -63 3631 3632 0
856 63 -3631 3632 0
856 -13 -14 -3643 0
856 13 14 -3643 0
856 13 -14 3643 0
856 -13 14 3643 0
856 -64 -3647 -3648 0
856 64 3647 -3648 0
856 -64 3647 3648 0
856 64 -3647 3648 0
856 -68 -3650 -3651 0
856 68 3650 -3651 0
856 -68 3650 3651 0
856 68 -3650 3651 0
856 -113 -3653 -3654 0
856 113 3653 -3654 0
856 -113 3653 3654 0
856 113 -3653 3654 0
856 -14 -3676 -3677 0
856 14 3676 -3677 0
856 -14 3676 3677 0
856 14 -3676 3677 0
856 -119 -3685 -3686 0
856 119 3685 -3686 0
856 -119 3685 3686 0
856 119 -3685 3686 0
856 -29 -3690 -3691 0
856 29 3690 -3691 0
856 -29 3690 3691 0
856 29 -3690 3691 0
856 -76 -3695 -3696 0
856 76 3695 -3696 0
856 -76 3695 3696 0
856 76 -3695 3696 0
856 -39 -3706 -3707 0
856 39 3706 -3707 0
856 -39 3706 3707 0
856 39 -3706 3707 0
856 -137 -3717 -3718 0
856 137 3717 -3718 0
856 -137 3717 3718 0
856 137 -3717 3718 0
856 -32 -34 -3721 0
856 32 34 -3721 0
856 32 -34 3721 0
856 -32 34 3721 0
856 -85 -3725 -3726 0
856 85 3725 -3726 0
856 -85 3725 3726 0
856 85 -3725 3726 0
856 -51 -3738 -3739 0
856 51 3738 -3739 0
856 -51 3738 3739 0
856 51 -3738 3739 0
856 -103 -3743 -3744 0
856 103 3743 -3744 0
856 -103 3743 3744 0
856 103 -3743 3744 0
856 -51 -3754 -3755 0
856 51 3754 -3755 0
856 -51 3754 3755 0
856 51 -3754 3755 0
856 -58 -3759 -3760 0
856 58 3759 -3760 0
856 -58 3759 3760 0
856 58 -3759 3760 0
856 -52 -3770 -3771 0
856 52 3770 -3771 0
856 -52 3770 3771 0
856 52 -3770 3771 0
856 -109 -3781 -3782 0
856 109 3781 -3782 0
856 -109 3781 3782 0
856 109 -3781 3782 0
856 -55 -3804 -3805 0
856 55 3804 -3805 0
856 -55 3804 3805 0
856 55 -3804 3805 0
856 -104 -3807 -3808 0
856 104 3807 -3808 0
856 -104 3807 3808 0
856 104 -3807 3808 0
856 -58 -3820 -3821 0
856 58 3820 -3821 0
856 -58 3820 3821 0
856 58 -3820 3821 0
856 -102 -3823 -3824 0
856 102 3823 -3824 0
856 -102 3823 3824 0
856 102 -3823 3824 0
856 -51 -3834 -3835 0
856 51 3834 -3835 0
856 -51 3834 3835 0
856 51 -3834 3835 0
856 -107 -3841 -3842 0
856 107 3841 -3842 0
856 -107 3841 3842 0
856 107 -3841 3842 0
856 -103 -3866 -3867 0
856 103 3866 -3867 0
856 -103 3866 3867 0
856 103 -3866 3867 0
856 -109 -3869 -3870 0
856 109 3869 -3870 0
856 -109 3869 3870 0
856 109 -3869 3870 0
856 -8 -3874 -3875 0
856 8 3874 -3875 0
856 -8 3874 3875 0
856 8 -3874 3875 0
856 -52 -3877 -3878 0
856 52 3877 -3878 0
856 -52 3877 3878 0
856 52 -3877 3878 0
856 -101 -3882 -3883 0
856 101 3882 -3883 0
856 -101 3882 3883 0
856 101 -3882 3883 0
856 -108 -3887 -3888 0
856 108 3887 -3888 0
856 -108 3887 3888 0
856 108 -3887 3888 0
856 -112 -3898 -3899 0
856 112 3898 -3899 0
856 -112 3898 3899 0
856 112 -3898 3899 0
856 -119 -3903 -3904 0
856 119 3903 -3904 0
856 -119 3903 3904 0
856 119 -3903 3904 0
856 -12 -13 -3907 0
856 12 13 -3907 0
856 12 -13 3907 0
856 -12 13 3907 0
856 -19 -3909 -3910 0
856 19 3909 -3910 0
856 -19 3909 3910 0
856 19 -3909 3910 0
856 -68 -3930 -3931 0
856 68 3930 -3931 0
856 -68 3930 3931 0
856 68 -3930 3931 0
856 -119 -3937 -3938 0
856 119 3937 -3938 0
856 -119 3937 3938 0
856 119 -3937 3938 0
856 -111 -3948 -3949 0
856 111 3948 -3949 0
856 -111 3948 3949 0
856 111 -3948 3949 0
856 -118 -3951 -3952 0
856 118 3951 -3952 0
856 -118 3951 3952 0
856 118 -3951 3952 0
856 -112 -3962 -3963 0
856 112 3962 -3963 0
856 -112 3962 3963 0
856 112 -3962 3963 0
856 -119 -3965 -3966 0
856 119 3965 -3966 0
856 -119 3965 3966 0
856 119 -3965 3966 0
856 -15 -3970 -3971 0
856 15 3970 -3971 0
856 -15 3970 3971 0
856 15 -3970 3971 0
856 -117 -3981 -3982 0
856 117 3981 -3982 0
856 -117 3981 3982 0
856 117 -3981 3982 0
856 -111 -3994 -3995 0
856 111 3994 -3995 0
856 -111 3994 3995 0
856 111 -3994 3995 0
856 -117 -3997 -3998 0
856 117 3997 -3998 0
856 -117 3997 3998 0
856 117 -3997 3998 0
856 -12 -13 -4001 0
856 12 13 -4001 0
856 12 -13 4001 0
856 -12 13 4001 0
856 -65 -4005 -4006 0
856 65 4005 -4006 0
856 -65 4005 4006 0
856 65 -4005 4006 0
856 -21 -22 -4029 0
856 21 22 -4029 0
856 21 -22 4029 0
856 -21 22 4029 0
856 -123 -4037 -4038 0
856 123 4037 -4038 0
856 -123 4037 4038 0
856 123 -4037 4038 0
856 -32 -33 -4061 0
856 32 33 -4061 0
856 32 -33 4061 0
856 -32 33 4061 0
856 -39 -4063 -4064 0
856 39 4063 -4064 0
856 -39 4063 4064 0
856 39 -4063 4064 0
856 -84 -4066 -4067 0
856 84 4066 -4067 0
856 -84 4066 4067 0
856 84 -4066 4067 0
856 -88 -4069 -4070 0
856 88 4069 -4070 0
856 -88 4069 4070 0
856 88 -4069 4070 0
856 -1 -3 -4077 0
856 1 3 -4077 0
856 1 -3 4077 0
856 -1 3 4077 0
856 -8 -4079 -4080 0
856 8 4079 -4080 0
856 -8 4079 4080 0
856 8 -4079 4080 0
856 -47 -4094 -4095 0
856 47 4094 -4095 0
856 -47 4094 4095 0
856 47 -4094 4095 0
856 -62 -4099 -4100 0
856 62 4099 -4100 0
856 -62 4099 4100 0
856 62 -4099 4100 0
856 -71 -4104 -4105 0
856 71 4104 -4105 0
856 -71 4104 4105 0
856 71 -4104 4105 0
856 -92 -4113 -4114 0
856 92 4113 -4114 0
856 -92 4113 4114 0
856 92 -4113 4114 0
856 -96 -4116 -4117 0
856 96 4116 -4117 0
856 -96 4116 4117 0
856 96 -4116 4117 0
856 -109 -4125 -4126 0
856 109 4125 -4126 0
856 -109 4125 4126 0
856 109 -4125 4126 0
856 -129 -4132 -4133 0
856 129 4132 -4133 0
856 -129 4132 4133 0
856 129 -4132 4133 0
856 -251 -4137 -4138 0
856 251 4137 -4138 0
856 -251 4137 4138 0
856 251 -4137 4138 0
856 -2 -3 -4141 0
856 2 3 -4141 0
856 2 -3 4141 0
856 -2 3 4141 0
856 -33 -4157 -4158 0
856 33 4157 -4158 0
856 -33 4157 4158 0
856 33 -4157 4158 0
856 -47 -4164 -4165 0
856 47 4164 -4165 0
856 -47 4164 4165 0
856 47 -4164 4165 0
856 -52 -4167 -4168 0
856 52 4167 -4168 0
856 -52 4167 4168 0
856 52 -4167 4168 0
856 -141 -4204 -4205 0
856 141 4204 -4205 0
856 -141 4204 4205 0
856 141 -4204 4205 0
856 -148 -4209 -4210 0
856 148 4209 -4210 0
856 -148 4209 4210 0
856 148 -4209 4210 0
856 -3 -4 -4215 0
856 3 4 -4215 0
856 3 -4 4215 0
856 -3 4 4215 0
856 -20 -4221 -4222 0
856 20 4221 -4222 0
856 -20 4221 4222 0
856 20 -4221 4222 0
856 -44 -4228 -4229 0
856 44 4228 -4229 0
856 -44 4228 4229 0
856 44 -4228 4229 0
856 -107 -4247 -4248 0
856 107 4247 -4248 0
856 -107 4247 4248 0
856 107 -4247 4248 0
856 -117 -4252 -4253 0
856 117 4252 -4253 0
856 -117 4252 4253 0
856 117 -4252 4253 0
856 -126 -4255 -4256 0
856 126 4255 -4256 0
856 -126 4255 4256 0
856 126 -4255 4256 0
856 -1 -3 -4265 0
856 1 3 -4265 0
856 1 -3 4265 0
856 -1 3 4265 0
856 -19 -4271 -4272 0
856 19 4271 -4272 0
856 -19 4271 4272 0
856 19 -4271 4272 0
856 -32 -4280 -4281 0
856 32 4280 -4281 0
856 -32 4280 4281 0
856 32 -4280 4281 0
856 -38 -4285 -4286 0
856 38 4285 -4286 0
856 -38 4285 4286 0
856 38 -4285 4286 0
856 -54 -4292 -4293 0
856 54 4292 -4293 0
856 -54 4292 4293 0
856 54 -4292 4293 0
856 -77 -4301 -4302 0
856 77 4301 -4302 0
856 -77 4301 4302 0
856 77 -4301 4302 0
856 -85 -4304 -4305 0
856 85 4304 -4305 0
856 -85 4304 4305 0
856 85 -4304 4305 0
856 -111 -4317 -4318 0
856 111 4317 -4318 0
856 -111 4317 4318 0
856 111 -4317 4318 0
856 -124 -4324 -4325 0
856 124 4324 -4325 0
856 -124 4324 4325 0
856 124 -4324 4325 0
856 -141 -4333 -4334 0
856 141 4333 -4334 0
856 -141 4333 4334 0
856 141 -4333 4334 0
856 -348 -4348 -4349 0
856 348 4348 -4349 0
856 -348 4348 4349 0
856 348 -4348 4349 0
856 -359 -4359 -4360 0
856 359 4359 -4360 0
856 -359 4359 4360 0
856 359 -4359 4360 0
856 -349 -4384 -4385 0
856 349 4384 -4385 0
856 -349 4384 4385 0
856 349 -4384 4385 0
856 -352 -4387 -4388 0
856 352 4387 -4388 0
856 -352 4387 4388 0
856 352 -4387 4388 0
856 -342 -344 -4399 0
856 342 344 -4399 0
856 342 -344 4399 0
856 -342 344 4399 0
856 -347 -4401 -4402 0
856 347 4401 -4402 0
856 -347 4401 4402 0
856 347 -4401 4402 0
856 -356 -4404 -4405 0
856 356 4404 -4405 0
856 -356 4404 4405 0
856 356 -4404 4405 0
856 -368 -4409 -4410 0
856 368 4409 -4410 0
856 -368 4409 4410 0
856 368 -4409 4410 0
856 -352 -4416 -4417 0
856 352 4416 -4417 0
856 -352 4416 4417 0
856 352 -4416 4417 0
856 -359 -4419 -4420 0
856 359 4419 -4420 0
856 -359 4419 4420 0
856 359 -4419 4420 0
856 -344 -346 -4427 0
856 344 346 -4427 0
856 344 -346 4427 0
856 -344 346 4427 0
856 -349 -4429 -4430 0
856 349 4429 -4430 0
856 -349 4429 4430 0
856 349 -4429 4430 0
856 -344 -4446 -4447 0
856 344 4446 -4447 0
856 -344 4446 4447 0
856 344 -4446 4447 0
856 -359 -4451 -4452 0
856 359 4451 -4452 0
856 -359 4451 4452 0
856 359 -4451 4452 0
856 -342 -343 -4461 0
856 342 343 -4461 0
856 342 -343 4461 0
856 -342 343 4461 0
856 -353 -4465 -4466 0
856 353 4465 -4466 0
856 -353 4465 4466 0
856 353 -4465 4466 0
856 -352 -4480 -4481 0
856 352 4480 -4481 0
856 -352 4480 4481 0
856 352 -4480 4481 0
856 -357 -4483 -4484 0
856 357 4483 -4484 0
856 -357 4483 4484 0
856 357 -4483 4484 0
856 -352 -4512 -4513 0
856 352 4512 -4513 0
856 -352 4512 4513 0
856 352 -4512 4513 0
856 -358 -4515 -4516 0
856 358 4515 -4516 0
856 -358 4515 4516 0
856 358 -4515 4516 0
856 -356 -4528 -4529 0
856 356 4528 -4529 0
856 -356 4528 4529 0
856 356 -4528 4529 0
856 -363 -4531 -4532 0
856 363 4531 -4532 0
856 -363 4531 4532 0
856 363 -4531 4532 0
856 -344 -4540 -4541 0
856 344 4540 -4541 0
856 -344 4540 4541 0
856 344 -4540 4541 0
856 -359 -4545 -4546 0
856 359 4545 -4546 0
856 -359 4545 4546 0
856 359 -4545 4546 0
856 -342 -343 -4555 0
856 342 343 -4555 0
856 342 -343 4555 0
856 -342 343 4555 0
856 -369 -4567 -4568 0
856 369 4567 -4568 0
856 -369 4567 4568 0
856 369 -4567 4568 0
856 -349 -4590 -4591 0
856 349 4590 -4591 0
856 -349 4590 4591 0
856 349 -4590 4591 0
856 -352 -4593 -4594 0
856 352 4593 -4594 0
856 -352 4593 4594 0
856 352 -4593 4594 0
856 -341 -343 -4603 0
856 341 343 -4603 0
856 341 -343 4603 0
856 -341 343 4603 0
856 -350 -4605 -4606 0
856 350 4605 -4606 0
856 -350 4605 4606 0
856 350 -4605 4606 0
856 -362 -4610 -4611 0
856 362 4610 -4611 0
856 -362 4610 4611 0
856 362 -4610 4611 0
856 -369 -4613 -4614 0
856 369 4613 -4614 0
856 -369 4613 4614 0
856 369 -4613 4614 0
856 -361 -4626 -4627 0
856 361 4626 -4627 0
856 -361 4626 4627 0
856 361 -4626 4627 0
856 -369 -4631 -4632 0
856 369 4631 -4632 0
856 -369 4631 4632 0
856 369 -4631 4632 0
856 -346 -4650 -4651 0
856 346 4650 -4651 0
856 -346 4650 4651 0
856 346 -4650 4651 0
856 -368 -4659 -4660 0
856 368 4659 -4660 0
856 -368 4659 4660 0
856 368 -4659 4660 0
856 -348 -4678 -4679 0
856 348 4678 -4679 0
856 -348 4678 4679 0
856 348 -4678 4679 0
856 -355 -4683 -4684 0
856 355 4683 -4684 0
856 -355 4683 4684 0
856 355 -4683 4684 0
856 -363 -4688 -4689 0
856 363 4688 -4689 0
856 -363 4688 4689 0
856 363 -4688 4689 0
856 -368 -4691 -4692 0
856 368 4691 -4692 0
856 -368 4691 4692 0
856 368 -4691 4692 0
856 -391 -392 -4695 0
856 391 392 -4695 0
856 391 -392 4695 0
856 -391 392 4695 0
856 -399 -4701 -4702 0
856 399 4701 -4702 0
856 -399 4701 4702 0
856 399 -4701 4702 0
856 -391 -392 -4715 0
856 391 392 -4715 0
856 391 -392 4715 0
856 -391 392 4715 0
856 -395 -4717 -4718 0
856 395 4717 -4718 0
856 -395 4717 4718 0
856 395 -4717 4718 0
856 -398 -4720 -4721 0
856 398 4720 -4721 0
856 -398 4720 4721 0
856 398 -4720 4721 0
856 -413 -4725 -4726 0
856 413 4725 -4726 0
856 -413 4725 4726 0
856 413 -4725 4726 0
856 -401 -4738 -4739 0
856 401 4738 -4739 0
856 -401 4738 4739 0
856 401 -4738 4739 0
856 -417 -4747 -4748 0
856 417 4747 -4748 0
856 -417 4747 4748 0
856 417 -4747 4748 0
856 -401 -4754 -4755 0
856 401 4754 -4755 0
856 -401 4754 4755 0
856 401 -4754 4755 0
856 -414 -4759 -4760 0
856 414 4759 -4760 0
856 -414 4759 4760 0
856 414 -4759 4760 0
856 -401 -4782 -4783 0
856 401 4782 -4783 0
856 -401 4782 4783 0
856 401 -4782 4783 0
856 -405 -4785 -4786 0
856 405 4785 -4786 0
856 -405 4785 4786 0
856 405 -4785 4786 0
856 -391 -392 -4797 0
856 391 392 -4797 0
856 391 -392 4797 0
856 -391 392 4797 0
856 -404 -4801 -4802 0
856 404 4801 -4802 0
856 -404 4801 4802 0
856 404 -4801 4802 0
856 -392 -393 -4813 0
856 392 393 -4813 0
856 392 -393 4813 0
856 -392 393 4813 0
856 -397 -4815 -4816 0
856 397 4815 -4816 0
856 -397 4815 4816 0
856 397 -4815 4816 0
856 -407 -4820 -4821 0
856 407 4820 -4821 0
856 -407 4820 4821 0
856 407 -4820 4821 0
856 -412 -4823 -4824 0
856 412 4823 -4824 0
856 -412 4823 4824 0
856 412 -4823 4824 0
856 -405 -4834 -4835 0
856 405 4834 -4835 0
856 -405 4834 4835 0
856 405 -4834 4835 0
856 -413 -4839 -4840 0
856 413 4839 -4840 0
856 -413 4839 4840 0
856 413 -4839 4840 0
856 -394 -395 -4845 0
856 394 395 -4845 0
856 394 -395 4845 0
856 -394 395 4845 0
856 -402 -4849 -4850 0
856 402 4849 -4850 0
856 -402 4849 4850 0
856 402 -4849 4850 0
856 -411 -4852 -4853 0
856 411 4852 -4853 0
856 -411 4852 4853 0
856 411 -4852 4853 0
856 -419 -4857 -4858 0
856 419 4857 -4858 0
856 -419 4857 4858 0
856 419 -4857 4858 0
856 -394 -4862 -4863 0
856 394 4862 -4863 0
856 -394 4862 4863 0
856 394 -4862 4863 0
856 -408 -4867 -4868 0
856 408 4867 -4868 0
856 -408 4867 4868 0
856 408 -4867 4868 0
856 -414 -4884 -4885 0
856 414 4884 -4885 0
856 -414 4884 4885 0
856 414 -4884 4885 0
856 -419 -4887 -4888 0
856 419 4887 -4888 0
856 -419 4887 4888 0
856 419 -4887 4888 0
856 -391 -392 -4907 0
856 391 392 -4907 0
856 391 -392 4907 0
856 -391 392 4907 0
856 -409 -4915 -4916 0
856 409 4915 -4916 0
856 -409 4915 4916 0
856 409 -4915 4916 0
856 -401 -4956 -4957 0
856 401 4956 -4957 0
856 -401 4956 4957 0
856 401 -4956 4957 0
856 -407 -4959 -4960 0
856 407 4959 -4960 0
856 -407 4959 4960 0
856 407 -4959 4960 0
856 -392 -393 -4985 0
856 392 393 -4985 0
856 392 -393 4985 0
856 -392 393 4985 0
856 -418 -4995 -4996 0
856 418 4995 -4996 0
856 -418 4995 4996 0
856 418 -4995 4996 0
856 -446 -5016 -5017 0
856 446 5016 -5017 0
856 -446 5016 5017 0
856 446 -5016 5017 0
856 -449 -5019 -5020 0
856 449 5019 -5020 0
856 -449 5019 5020 0
856 449 -5019 5020 0
856 -444 -5034 -5035 0
856 444 5034 -5035 0
856 -444 5034 5035 0
856 444 -5034 5035 0
856 -447 -5037 -5038 0
856 447 5037 -5038 0
856 -447 5037 5038 0
856 447 -5037 5038 0
856 -449 -5054 -5055 0
856 449 5054 -5055 0
856 -449 5054 5055 0
856 449 -5054 5055 0
856 -463 -5063 -5064 0
856 463 5063 -5064 0
856 -463 5063 5064 0
856 463 -5063 5064 0
856 -441 -442 -5069 0
856 441 442 -5069 0
856 441 -442 5069 0
856 -441 442 5069 0
856 -448 -5071 -5072 0
856 448 5071 -5072 0
856 -448 5071 5072 0
856 448 -5071 5072 0
856 -462 -5076 -5077 0
856 462 5076 -5077 0
856 -462 5076 5077 0
856 462 -5076 5077 0
856 -466 -5079 -5080 0
856 466 5079 -5080 0
856 -466 5079 5080 0
856 466 -5079 5080 0
856 -498 -5090 -5091 0
856 498 5090 -5091 0
856 -498 5090 5091 0
856 498 -5090 5091 0
856 -503 -5095 -5096 0
856 503 5095 -5096 0
856 -503 5095 5096 0
856 503 -5095 5096 0
856 -514 -5116 -5117 0
856 514 5116 -5117 0
856 -514 5116 5117 0
856 514 -5116 5117 0
856 -517 -5119 -5120 0
856 517 5119 -5120 0
856 -517 5119 5120 0
856 517 -5119 5120 0
856 -501 -5128 -5129 0
856 501 5128 -5129 0
856 -501 5128 5129 0
856 501 -5128 5129 0
856 -517 -5137 -5138 0
856 517 5137 -5138 0
856 -517 5137 5138 0
856 517 -5137 5138 0
856 -492 -494 -5141 0
856 492 494 -5141 0
856 492 -494 5141 0
856 -492 494 5141 0
856 -505 -5145 -5146 0
856 505 5145 -5146 0
856 -505 5145 5146 0
856 505 -5145 5146 0
856 -501 -5158 -5159 0
856 501 5158 -5159 0
856 -501 5158 5159 0
856 501 -5158 5159 0
856 -513 -5163 -5164 0
856 513 5163 -5164 0
856 -513 5163 5164 0
856 513 -5163 5164 0
856 -492 -493 -5171 0
856 492 493 -5171 0
856 492 -493 5171 0
856 -492 493 5171 0
856 -499 -5173 -5174 0
856 499 5173 -5174 0
856 -499 5173 5174 0
856 499 -5173 5174 0
856 -504 -5176 -5177 0
856 504 5176 -5177 0
856 -504 5176 5177 0
856 504 -5176 5177 0
856 -512 -5181 -5182 0
856 512 5181 -5182 0
856 -512 5181 5182 0
856 512 -5181 5182 0
856 -369 -5198 -5199 0
856 369 5198 -5199 0
856 -369 5198 5199 0
856 369 -5198 5199 0
856 -397 -5201 -5202 0
856 397 5201 -5202 0
856 -397 5201 5202 0
856 397 -5201 5202 0
856 -419 -5210 -5211 0
856 419 5210 -5211 0
856 -419 5210 5211 0
856 419 -5210 5211 0
856 -446 -5213 -5214 0
856 446 5213 -5214 0
856 -446 5213 5214 0
856 446 -5213 5214 0
856 -457 -5222 -5223 0
856 457 5222 -5223 0
856 -457 5222 5223 0
856 457 -5222 5223 0
856 -546 -5231 -5232 0
856 546 5231 -5232 0
856 -546 5231 5232 0
856 546 -5231 5232 0
856 -552 -5236 -5237 0
856 552 5236 -5237 0
856 -552 5236 5237 0
856 552 -5236 5237 0
856 -591 -5247 -5248 0
856 591 5247 -5248 0
856 -591 5247 5248 0
856 591 -5247 5248 0
856 -343 -344 -5251 0
856 343 344 -5251 0
856 343 -344 5251 0
856 -343 344 5251 0
856 -357 -5255 -5256 0
856 357 5255 -5256 0
856 -357 5255 5256 0
856 357 -5255 5256 0
856 -401 -5266 -5267 0
856 401 5266 -5267 0
856 -401 5266 5267 0
856 401 -5266 5267 0
856 -461 -5281 -5282 0
856 461 5281 -5282 0
856 -461 5281 5282 0
856 461 -5281 5282 0
856 -468 -5284 -5285 0
856 468 5284 -5285 0
856 -468 5284 5285 0
856 468 -5284 5285 0
856 -553 -5289 -5290 0
856 553 5289 -5290 0
856 -553 5289 5290 0
856 553 -5289 5290 0
856 -346 -5302 -5303 0
856 346 5302 -5303 0
856 -346 5302 5303 0
856 346 -5302 5303 0
856 -365 -5311 -5312 0
856 365 5311 -5312 0
856 -365 5311 5312 0
856 365 -5311 5312 0
856 -447 -5328 -5329 0
856 447 5328 -5329 0
856 -447 5328 5329 0
856 447 -5328 5329 0
856 -491 -5337 -5338 0
856 491 5337 -5338 0
856 -491 5337 5338 0
856 491 -5337 5338 0
856 -564 -5366 -5367 0
856 564 5366 -5367 0
856 -564 5366 5367 0
856 564 -5366 5367 0
856 -591 -5371 -5372 0
856 591 5371 -5372 0
856 -591 5371 5372 0
856 591 -5371 5372 0
856 -359 -5380 -5381 0
856 359 5380 -5381 0
856 -359 5380 5381 0
856 359 -5380 5381 0
856 -415 -5397 -5398 0
856 415 5397 -5398 0
856 -415 5397 5398 0
856 415 -5397 5398 0
856 -418 -5400 -5401 0
856 418 5400 -5401 0
856 -418 5400 5401 0
856 418 -5400 5401 0
856 -494 -5419 -5420 0
856 494 5419 -5420 0
856 -494 5419 5420 0
856 494 -5419 5420 0
856 -508 -5428 -5429 0
856 508 5428 -5429 0
856 -508 5428 5429 0
856 508 -5428 5429 0
856 -546 -5437 -5438 0
856 546 5437 -5438 0
856 -546 5437 5438 0
856 546 -5437 5438 0
856 -554 -5440 -5441 0
856 554 5440 -5441 0
856 -554 5440 5441 0
856 554 -5440 5441 0
856 -601 -5449 -5450 0
856 601 5449 -5450 0
856 -601 5449 5450 0
856 601 -5449 5450 0
856 1021 1022 1023 1024 1025 1026 1027 1028 1029 1030 1031 1032 1033 1034 1035 1036 1037 1038 1039 1040 1041 1042 1043 1044 1045 1046 1047 1048 1049 1050 1051 1052 1053 1054 1055 1056 1057 1058 1059 1060 1061 1062 1063 1064 1065 1066 1067 1068 1069 1070 1071 1072 1073 1074 1075 1076 1077 1078 1079 1080 1081 1082 1083 1084 1085 1086 1087 1088 1089 1090 1091 1092 1093 1094 1095 1096 1097 1098 1099 1100 1101 1102 1103 1104 1105 1106 1107 1108 1109 1110 1111 1112 1113 1114 1115 1116 1117 1118 1119 1120 1121 1122 1123 1124 1125 1126 1127 1128 1129 1130 1131 1132 0
856 1 341 -681 0
856 -1 681 0
856 -341 681 0
856 2 342 -682 0
856 -2 682 0
856 -342 682 0
856 3 343 -683 0
856 -3 683 0
856 -343 683 0
856 4 344 -684 0
856 -4 684 0
856 -344 684 0
856 5 345 -685 0
856 -5 685 0
856 -345 685 0
856 6 346 -686 0
856 -6 686 0
856 -346 686 0
856 7 347 -687 0
856 -7 687 0
856 -347 687 0
856 8 348 -688 0
856 -8 688 0
856 -348 688 0
856 9 349 -689 0
856 -9 689 0
856 -349 689 0
856 10 350 -690 0
856 -10 690 0
856 -350 690 0
856 11 351 -691 0
856 -11 691 0
856 -351 691 0
856 12 352 -692 0
856 -12 692 0
856 -352 692 0
856 13 353 -693 0
856 -13 693 0
856 -353 693 0
856 14 354 -694 0
856 -14 694 0
856 -354 694 0
856 15 355 -695 0
856 -15 695 0
856 -355 695 0
856 16 356 -696 0
856 -16 696 0
856 -356 696 0
856 17 357 -697 0
856 -17 697 0
856 -357 697 0
856 18 358 -698 0
856 -18 698 0
856 -358 698 0
856 19 359 -699 0
856 -19 699 0
856 -359 699 0
856 20 360 -700 0
856 -20 700 0
856 -360 700 0
856 21 361 -701 0
856 -21 701 0
856 -361 701 0
856 22 362 -702 0
856 -22 702 0
856 -362 702 0
856 23 363 -703 0
856 -23 703 0
856 -363 703 0
856 24 364 -704 0
856 -24 704 0
856 -364 704 0
856 25 365 -705 0
856 -25 705 0
856 -365 705 0
856 26 366 -706 0
856 -26 706 0
856 -366 706 0
856 27 367 -707 0
856 -27 707 0
856 -367 707 0
856 28 368 -708 0
856 -28 708 0
856 -368 708 0
856 29 369 -709 0
856 -29 709 0
856 -369 709 0
856 30 370 -710 0
856 -30 710 0
856 -370 710 0
856 31 371 -711 0
856 -31 711 0
856 -371 711 0
856 32 372 -712 0
856 -32 712 0
856 -372 712 0
856 33 373 -713 0
856 -33 713 0
856 -373 713 0
856 34 374 -714 0
856 -34 714 0
856 -374 714 0
856 35 375 -715 0
856 -35 715 0
856 -375 715 0
856 36 376 -716 0
856 -36 716 0
856 -376 716 0
856 37 377 -717 0
856 -37 717 0
856 -377 717 0
856 38 378 -718 0
856 -38 718 0
856 -378 718 0
856 39 379 -719 0
856 -39 719 0
856 -379 719 0
856 40 380 -720 0
856 -40 720 0
856 -380 720 0
856 41 381 -721 0
856 -41 721 0
856 -381 721 0
856 42 382 -722 0
856 -42 722 0
856 -382 722 0
856 43 383 -723 0
856 -43 723 0
856 -383 723 0
856 44 384 -724 0
856 -44 724 0
856 -384 724 0
856 45 385 -725 0
856 -45 725 0
856 -385 725 0
856 46 386 -726 0
856 -46 726 0
856 -386 726 0
856 47 387 -727 0
856 -47 727 0
856 -387 727 0
856 48 388 -728 0
856 -48 728 0
856 -388 728 0
856 49 389 -729 0
856 -49 729 0
856 -389 729 0
856 50 390 -730 0
856 -50 730 0
856 -390 730 0
856 51 391 -731 0
856 -51 731 0
856 -391 731 0
856 52 392 -732 0
856 -52 732 0
856 -392 732 0
856 53 393 -733 0
856 -53 733 0
856 -393 733 0
856 54 394 -734 0
856 -54 734 0
856 -394 734 0
856 55 395 -735 0
856 -55 735 0
856 -395 735 0
856 56 396 -736 0
856 -56 736 0
856 -396 736 0
856 57 397 -737 0
856 -57 737 0
856 -397 737 0
856 58 398 -738 0
856 -58 738 0
856 -398 738 0
856 59 399 -739 0
856 -59 739 0
856 -399 739 0
856 60 400 -740 0
856 -60 740 0
856 -400 740 0
856 61 401 -741 0
856 -61 741 0
856 -401 741 0
856 62 402 -742 0
856 -62 742 0
856 -402 742 0
856 63 403 -743 0
856 -63 743 0
856 -403 743 0
856 64 404 -744 0
856 -64 744 0
856 -404 744 0
856 65 405 -745 0
856 -65 745 0
856 -405 745 0
856 66 406 -746 0
856 -66 746 0
856 -406 746 0
856 67 407 -747 0
856 -67 747 0
856 -407 747 0
856 68 408 -748 0
856 -68 748 0
856 -408 748 0
856 69 409 -749 0
856 -69 749 0
856 -409 749 0
856 70 410 -750 0
856 -70 750 0
856 -410 750 0
856 71 411 -751 0
856 -71 751 0
856 -411 751 0
856 72 412 -752 0
856 -72 752 0
856 -412 752 0
856 73 413 -753 0
856 -73 753 0
856 -413 753 0
856 74 414 -754 0
856 -74 754 0
856 -414 754 0
856 75 415 -755 0
856 -75 755 0
856 -415 755 0
856 76 416 -756 0
856 -76 756 0
856 -416 756 0
856 77 417 -757 0
856 -77 757 0
856 -417 757 0
856 78 418 -758 0
856 -78 758 0
856 -418 758 0
856 79 419 -759 0
856 -79 759 0
856 -419 759 0
856 80 420 -760 0
856 -80 760 0
856 -420 760 0
856 81 421 -761 0
856 -81 761 0
856 -421 761 0
856 82 422 -762 0
856 -82 762 0
856 -422 762 0
856 83 423 -763 0
856 -83 763 0
856 -423 763 0
856 84 424 -764 0
856 -84 764 0
856 -424 764 0
856 85 425 -765 0
856 -85 765 0
856 -425 765 0
856 86 426 -766 0
856 -86 766 0
856 -426 766 0
856 87 427 -767 0
856 -87 767 0
856 -427 767 0
856 88 428 -768 0
856 -88 768 0
856 -428 768 0
856 89 429 -769 0
856 -89 769 0
856 -429 769 0
856 90 430 -770 0
856 -90 770 0
856 -430 770 0
856 91 431 -771 0
856 -91 771 0
856 -431 771 0
856 92 432 -772 0
856 -92 772 0
856 -432 772 0
856 93 433 -773 0
856 -93 773 0
856 -433 773 0
856 94 434 -774 0
856 -94 774 0
856 -434 774 0
856 95 435 -775 0
856 -95 775 0
856 -435 775 0
856 96 436 -776 0
856 -96 776 0
856 -436 776 0
856 97 437 -777 0
856 -97 777 0
856 -437 777 0
856 98 438 -778 0
856 -98 778 0
856 -438 778 0
856 99 439 -779 0
856 -99 779 0
856 -439 779 0
856 100 440 -780 0
856 -100 780 0
856 -440 780 0
856 101 441 -781 0
856 -101 781 0
856 -441 781 0
856 102 442 -782 0
856 -102 782 0
856 -442 782 0
856 103 443 -783 0
856 -103 783 0
856 -443 783 0
856 104 444 -784 0
856 -104 784 0
856 -444 784 0
856 105 445 -785 0
856 -105 785 0
856 -445 785 0
856 106 446 -786 0
856 -106 786 0
856 -446 786 0
856 107 447 -787 0
856 -107 787 0
856 -447 787 0
856 108 448 -788 0
856 -108 788 0
856 -448 788 0
856 109 449 -789 0
856 -109 789 0
856 -449 789 0
856 110 450 -790 0
856 -110 790 0
856 -450 790 0
856 111 451 -791 0
856 -111 791 0
856 -451 791 0
856 112 452 -792 0
856 -112 792 0
856 -452 792 0
856 113 453 -793 0
856 -113 793 0
856 -453 793 0
856 114 454 -794 0
856 -114 794 0
856 -454 794 0
856 115 455 -795 0
856 -115 795 0
856 -455 795 0
856 116 456 -796 0
856 -116 796 0
856 -456 796 0
856 117 457 -797 0
856 -117 797 0
856 -457 797 0
856 118 458 -798 0
856 -118 798 0
856 -458 798 0
856 119 459 -799 0
856 -119 799 0
856 -459 799 0
856 120 460 -800 0
856 -120 800 0
856 -460 800 0
856 121 461 -801 0
856 -121 801 0
856 -461 801 0
856 122 462 -802 0
856 -122 802 0
856 -462 802 0
856 123 463 -803 0
856 -123 803 0
856 -463 803 0
856 124 464 -804 0
856 -124 804 0
856 -464 804 0
856 125 465 -805 0
856 -125 805 0
856 -465 805 0
856 126 466 -806 0
856 -126 806 0
856 -466 806 0
856 127 467 -807 0
856 -127 807 0
856 -467 807 0
856 128 468 -808 0
856 -128 808 0
856 -468 808 0
856 129 469 -809 0
856 -129 809 0
856 -469 809 0
856 130 470 -810 0
856 -130 810 0
856 -470 810 0
856 131 471 -811 0
856 -131 811 0
856 -471 811 0
856 132 472 -812 0
856 -132 812 0
856 -472 812 0
856 133 473 -813 0
856 -133 813 0
856 -473 813 0
856 134 474 -814 0
856 -134 814 0
856 -474 814 0
856 135 475 -815 0
856 -135 815 0
856 -475 815 0
856 136 476 -816 0
856 -136 816 0
856 -476 816 0
856 137 477 -817 0
856 -137 817 0
856 -477 817 0
856 138 478 -818 0
856 -138 818 0
856 -478 818 0
856 139 479 -819 0
856 -139 819 0
856 -479 819 0
856 140 480 -820 0
856 -140 820 0
856 -480 820 0
856 141 481 -821 0
856 -141 821 0
856 -481 821 0
856 142 482 -822 0
856 -142 822 0
856 -482 822 0
856 143 483 -823 0
856 -143 823 0
856 -483 823 0
856 144 484 -824 0
856 -144 824 0
856 -484 824 0
856 145 485 -825 0
856 -145 825 0
856 -485 825 0
856 146 486 -826 0
856 -146 826 0
856 -486 826 0
856 147 487 -827 0
856 -147 827 0
856 -487 827 0
856 148 488 -828 0
856 -148 828 0
856 -488 828 0
856 149 489 -829 0
856 -149 829 0
856 -489 829 0
856 150 490 -830 0
856 -150 830 0
856 -490 830 0
856 151 491 -831 0
856 -151 831 0
856 -491 831 0
856 152 492 -832 0
856 -152 832 0
856 -492 832 0
856 153 493 -833 0
856 -153 833 0
856 -493 833 0
856 154 494 -834 0
856 -154 834 0
856 -494 834 0
856 155 495 -835 0
856 -155 835 0
856 -495 835 0
856 156 496 -836 0
856 -156 836 0
856 -496 836 0
856 157 497 -837 0
856 -157 837 0
856 -497 837 0
856 158 498 -838 0
856 -158 838 0
856 -498 838 0
856 159 499 -839 0
856 -159 839 0
856 -499 839 0
856 160 500 -840 0
856 -160 840 0
856 -500 840 0
856 161 501 -841 0
856 -161 841 0
856 -501 841 0
856 162 502 -842 0
856 -162 842 0
856 -502 842 0
856 163 503 -843 0
856 -163 843 0
856 -503 843 0
856 164 504 -844 0
856 -164 844 0
856 -504 844 0
856 165 505 -845 0
856 -165 845 0
856 -505 845 0
856 166 506 -846 0
856 -166 846 0
856 -506 846 0
856 167 507 -847 0
856 -167 847 0
856 -507 847 0
856 168 508 -848 0
856 -168 848 0
856 -508 848 0
856 169 509 -849 0
856 -169 849 0
856 -509 849 0
856 170 510 -850 0
856 -170 850 0
856 -510 850 0
856 171 511 -851 0
856 -171 851 0
856 -511 851 0
856 172 512 -852 0
856 -172 852 0
856 -512 852 0
856 173 513 -853 0
856 -173 853 0
856 -513 853 0
856 174 514 -854 0
856 -174 854 0
856 -514 854 0
856 175 515 -855 0
856 -175 855 0
856 -515 855 0
856 176 516 -856 0
856 -176 856 0
856 -516 856 0
856 177 517 -857 0
856 -177 857 0
856 -517 857 0
856 178 518 -858 0
856 -178 858 0
856 -518 858 0
856 179 519 -859 0
856 -179 859 0
856 -519 859 0
856 180 520 -860 0
856 -180 860 0
856 -520 860 0
856 181 521 -861 0
856 -181 861 0
856 -521 861 0
856 182 522 -862 0
856 -182 862 0
856 -522 862 0
856 183 523 -863 0
856 -183 863 0
856 -523 863 0
856 184 524 -864 0
856 -184 864 0
856 -524 864 0
856 185 525 -865 0
856 -185 865 0
856 -525 865 0
856 186 526 -866 0
856 -186 866 0
856 -526 866 0
856 187 527 -867 0
856 -187 867 0
856 -527 867 0
856 188 528 -868 0
856 -188 868 0
856 -528 868 0
856 189 529 -869 0
856 -189 869 0
856 -529 869 0
856 190 530 -870 0
856 -190 870 0
856 -530 870 0
856 191 531 -871 0
856 -191 871 0
856 -531 871 0
856 192 532 -872 0
856 -192 872 0
856 -532 872 0
856 193 533 -873 0
856 -193 873 0
856 -533 873 0
856 194 534 -874 0
856 -194 874 0
856 -534 874 0
856 195 535 -875 0
856 -195 875 0
856 -535 875 0
856 196 536 -876 0
856 -196 876 0
856 -536 876 0
856 197 537 -877 0
856 -197 877 0
856 -537 877 0
856 198 538 -878 0
856 -198 878 0
856 -538 878 0
856 199 539 -879 0
856 -199 879 0
856 -539 879 0
856 200 540 -880 0
856 -200 880 0
856 -540 880 0
856 201 541 -881 0
856 -201 881 0
856 -541 881 0
856 202 542 -882 0
856 -202 882 0
856 -542 882 0
856 203 543 -883 0
856 -203 883 0
856 -543 883 0
856 204 544 -884 0
856 -204 884 0
856 -544 884 0
856 205 545 -885 0
856 -205 885 0
856 -545 885 0
856 206 546 -886 0
856 -206 886 0
856 -546 886 0
856 207 547 -887 0
856 -207 887 0
856 -547 887 0
856 208 548 -888 0
856 -208 888 0
856 -548 888 0
856 209 549 -889 0
856 -209 889 0
856 -549 889 0
856 210 550 -890 0
856 -210 890 0
856 -550 890 0
856 211 551 -891 0
856 -211 891 0
856 -551 891 0
856 212 552 -892 0
856 -212 892 0
856 -552 892 0
856 213 553 -893 0
856 -213 893 0
856 -553 893 0
856 214 554 -894 0
856 -214 894 0
856 -554 894 0
856 215 555 -895 0
856 -215 895 0
856 -555 895 0
856 216 556 -896 0
856 -216 896 0
856 -556 896 0
856 217 557 -897 0
856 -217 897 0
856 -557 897 0
856 218 558 -898 0
856 -218 898 0
856 -558 898 0
856 219 559 -899 0
856 -219 899 0
856 -559 899 0
856 220 560 -900 0
856 -220 900 0
856 -560 900 0
856 221 561 -901 0
856 -221 901 0
856 -561 901 0
856 222 562 -902 0
856 -222 902 0
856 -562 902 0
856 223 563 -903 0
856 -223 903 0
856 -563 903 0
856 224 564 -904 0
856 -224 904 0
856 -564 904 0
856 225 565 -905 0
856 -225 905 0
856 -565 905 0
856 226 566 -906 0
856 -226 906 0
856 -566 906 0
856 227 567 -907 0
856 -227 907 0
856 -567 907 0
856 228 568 -908 0
856 -228 908 0
856 -568 908 0
856 229 569 -909 0
856 -229 909 0
856 -569 909 0
856 230 570 -910 0
856 -230 910 0
856 -570 910 0
856 231 571 -911 0
856 -231 911 0
856 -571 911 0
856 232 572 -912 0
856 -232 912 0
856 -572 912 0
856 233 573 -913 0
856 -233 913 0
856 -573 913 0
856 234 574 -914 0
856 -234 914 0
856 -574 914 0
856 235 575 -915 0
856 -235 915 0
856 -575 915 0
856 236 576 -916 0
856 -236 916 0
856 -576 916 0
856 237 577 -917 0
856 -237 917 0
856 -577 917 0
856 238 578 -918 0
856 -238 918 0
856 -578 918 0
856 239 579 -919 0
856 -239 919 0
856 -579 919 0
856 240 580 -920 0
856 -240 920 0
856 -580 920 0
856 241 581 -921 0
856 -241 921 0
856 -581 921 0
856 242 582 -922 0
856 -242 922 0
856 -582 922 0
856 243 583 -923 0
856 -243 923 0
856 -583 923 0
856 244 584 -924 0
856 -244 924 0
856 -584 924 0
856 245 585 -925 0
856 -245 925 0
856 -585 925 0
856 246 586 -926 0
856 -246 926 0
856 -586 926 0
856 247 587 -927 0
856 -247 927 0
856 -587 927 0
856 248 588 -928 0
856 -248 928 0
856 -588 928 0
856 249 589 -929 0
856 -249 929 0
856 -589 929 0
856 250 590 -930 0
856 -250 930 0
856 -590 930 0
856 251 591 -931 0
856 -251 931 0
856 -591 931 0
856 252 592 -932 0
856 -252 932 0
856 -592 932 0
856 253 593 -933 0
856 -253 933 0
856 -593 933 0
856 254 594 -934 0
856 -254 934 0
856 -594 934 0
856 255 595 -935 0
856 -255 935 0
856 -595 935 0
856 256 596 -936 0
856 -256 936 0
856 -596 936 0
856 257 597 -937 0
856 -257 937 0
856 -597 937 0
856 258 598 -938 0
856 -258 938 0
856 -598 938 0
856 259 599 -939 0
856 -259 939 0
856 -599 939 0
856 260 600 -940 0
856 -260 940 0
856 -600 940 0
856 261 601 -941 0
856 -261 941 0
856 -601 941 0
856 262 602 -942 0
856 -262 942 0
856 -602 942 0
856 263 603 -943 0
856 -263 943 0
856 -603 943 0
856 264 604 -944 0
856 -264 944 0
856 -604 944 0
856 265 605 -945 0
856 -265 945 0
856 -605 945 0
856 266 606 -946 0
856 -266 946 0
856 -606 946 0
856 267 607 -947 0
856 -267 947 0
856 -607 947 0
856 268 608 -948 0
856 -268 948 0
856 -608 948 0
856 269 609 -949 0
856 -269 949 0
856 -609 949 0
856 270 610 -950 0
856 -270 950 0
856 -610 950 0
856 271 611 -951 0
856 -271 951 0
856 -611 951 0
856 272 612 -952 0
856 -272 952 0
856 -612 952 0
856 273 613 -953 0
856 -273 953 0
856 -613 953 0
856 274 614 -954 0
856 -274 954 0
856 -614 954 0
856 275 615 -955 0
856 -275 955 0
856 -615 955 0
856 276 616 -956 0
856 -276 956 0
856 -616 956 0
856 277 617 -957 0
856 -277 957 0
856 -617 957 0
856 278 618 -958 0
856 -278 958 0
856 -618 958 0
856 279 619 -959 0
856 -279 959 0
856 -619 959 0
856 280 620 -960 0
856 -280 960 0
856 -620 960 0
856 281 621 -961 0
856 -281 961 0
856 -621 961 0
856 282 622 -962 0
856 -282 962 0
856 -622 962 0
856 283 623 -963 0
856 -283 963 0
856 -623 963 0
856 284 624 -964 0
856 -284 964 0
856 -624 964 0
856 285 625 -965 0
856 -285 965 0
856 -625 965 0
856 286 626 -966 0
856 -286 966 0
856 -626 966 0
856 287 627 -967 0
856 -287 967 0
856 -627 967 0
856 288 628 -968 0
856 -288 968 0
856 -628 968 0
856 289 629 -969 0
856 -289 969 0
856 -629 969 0
856 290 630 -970 0
856 -290 970 0
856 -630 970 0
856 291 631 -971 0
856 -291 971 0
856 -631 971 0
856 292 632 -972 0
856 -292 972 0
856 -632 972 0
856 293 633 -973 0
856 -293 973 0
856 -633 973 0
856 294 634 -974 0
856 -294 974 0
856 -634 974 0
856 295 635 -975 0
856 -295 975 0
856 -635 975 0
856 296 636 -976 0
856 -296 976 0
856 -636 976 0
856 297 637 -977 0
856 -297 977 0
856 -637 977 0
856 298 638 -978 0
856 -298 978 0
856 -638 978 0
856 299 639 -979 0
856 -299 979 0
856 -639 979 0
856 300 640 -980 0
856 -300 980 0
856 -640 980 0
856 301 641 -981 0
856 -301 981 0
856 -641 981 0
856 302 642 -982 0
856 -302 982 0
856 -642 982 0
856 303 643 -983 0
856 -303 983 0
856 -643 983 0
856 304 644 -984 0
856 -304 984 0
856 -644 984 0
856 305 645 -985 0
856 -305 985 0
856 -645 985 0
856 306 646 -986 0
856 -306 986 0
856 -646 986 0
856 307 647 -987 0
856 -307 987 0
856 -647 987 0
856 308 648 -988 0
856 -308 988 0
856 -648 988 0
856 309 649 -989 0
856 -309 989 0
856 -649 989 0
856 310 650 -990 0
856 -310 990 0
856 -650 990 0
856 311 651 -991 0
856 -311 991 0
856 -651 991 0
856 312 652 -992 0
856 -312 992 0
856 -652 992 0
856 313 653 -993 0
856 -313 993 0
856 -653 993 0
856 314 654 -994 0
856 -314 994 0
856 -654 994 0
856 315 655 -995 0
856 -315 995 0
856 -655 995 0
856 316 656 -996 0
856 -316 996 0
856 -656 996 0
856 317 657 -997 0
856 -317 997 0
856 -657 997 0
856 318 658 -998 0
856 -318 998 0
856 -658 998 0
856 319 659 -999 0
856 -319 999 0
856 -659 999 0
856 320 660 -1000 0
856 -320 1000 0
856 -660 1000 0
856 321 661 -1001 0
856 -321 1001 0
856 -661 1001 0
856 322 662 -1002 0
856 -322 1002 0
856 -662 1002 0
856 323 663 -1003 0
856 -323 1003 0
856 -663 1003 0
856 324 664 -1004 0
856 -324 1004 0
856 -664 1004 0
856 325 665 -1005 0
856 -325 1005 0
856 -665 1005 0
856 326 666 -1006 0
856 -326 1006 0
856 -666 1006 0
856 327 667 -1007 0
856 -327 1007 0
856 -667 1007 0
856 328 668 -1008 0
856 -328 1008 0
856 -668 1008 0
856 329 669 -1009 0
856 -329 1009 0
856 -669 1009 0
856 330 670 -1010 0
856 -330 1010 0
856 -670 1010 0
856 331 671 -1011 0
856 -331 1011 0
856 -671 1011 0
856 332 672 -1012 0
856 -332 1012 0
856 -672 1012 0
856 333 673 -1013 0
856 -333 1013 0
856 -673 1013 0
856 334 674 -1014 0
856 -334 1014 0
856 -674 1014 0
856 335 675 -1015 0
856 -335 1015 0
856 -675 1015 0
856 336 676 -1016 0
856 -336 1016 0
856 -676 1016 0
856 337 677 -1017 0
856 -337 1017 0
856 -677 1017 0
856 338 678 -1018 0
856 -338 1018 0
856 -678 1018 0
856 339 679 -1019 0
856 -339 1019 0
856 -679 1019 0
856 340 680 -1020 0
856 -340 1020 0
856 -680 1020 0
856 -661 680 2047 0
856 661 680 -2047 0
856 -661 -680 -2047 0
856 661 -680 2047 0
856 -662 671 2054 0
856 662 671 -2054 0
856 -662 -671 -2054 0
856 662 -671 2054 0
856 -663 672 2061 0
856 663 672 -2061 0
856 -663 -672 -2061 0
856 663 -672 2061 0
856 -664 673 2068 0
856 664 673 -2068 0
856 -664 -673 -2068 0
856 664 -673 2068 0
856 -261 1073 4138 0
856 261 1073 -4138 0
856 -261 -1073 -4138 0
856 261 -1073 4138 0
856 -665 674 2075 0
856 665 674 -2075 0
856 -665 -674 -2075 0
856 665 -674 2075 0
856 -666 675 2082 0
856 666 675 -2082 0
856 -666 -675 -2082 0
856 666 -675 2082 0
856 -667 676 2089 0
856 667 676 -2089 0
856 -667 -676 -2089 0
856 667 -676 2089 0
856 -668 677 2096 0
856 668 677 -2096 0
856 -668 -677 -2096 0
856 668 -677 2096 0
856 -271 1074 4212 0
856 271 1074 -4212 0
856 -271 -1074 -4212 0
856 271 -1074 4212 0
856 -669 678 2103 0
856 669 678 -2103 0
856 -669 -678 -2103 0
856 669 -678 2103 0
856 -670 679 2110 0
856 670 679 -2110 0
856 -670 -679 -2110 0
856 670 -679 2110 0
856 -669 680 2117 0
856 669 680 -2117 0
856 -669 -680 -2117 0
856 669 -680 2117 0
856 -670 671 2124 0
856 670 671 -2124 0
856 -670 -671 -2124 0
856 670 -671 2124 0
856 -661 672 2131 0
856 661 672 -2131 0
856 -661 -672 -2131 0
856 661 -672 2131 0
856 -291 1075 4262 0
856 291 1075 -4262 0
856 -291 -1075 -4262 0
856 291 -1075 4262 0
856 -662 673 2138 0
856 662 673 -2138 0
856 -662 -673 -2138 0
856 662 -673 2138 0
856 -663 674 2145 0
856 663 674 -2145 0
856 -663 -674 -2145 0
856 663 -674 2145 0
856 -664 675 2152 0
856 664 675 -2152 0
856 -664 -675 -2152 0
856 664 -675 2152 0
856 -665 676 2159 0
856 665 676 -2159 0
856 -665 -676 -2159 0
856 665 -676 2159 0
856 -666 677 2166 0
856 666 677 -2166 0
856 -666 -677 -2166 0
856 666 -677 2166 0
856 -301 1076 4340 0
856 301 1076 -4340 0
856 -301 -1076 -4340 0
856 301 -1076 4340 0
856 -667 678 2173 0
856 667 678 -2173 0
856 -667 -678 -2173 0
856 667 -678 2173 0
856 -668 679 2180 0
856 668 679 -2180 0
856 -668 -679 -2180 0
856 668 -679 2180 0
856 -360 1077 4360 0
856 360 1077 -4360 0
856 -360 -1077 -4360 0
856 360 -1077 4360 0
856 -282 315 2187 0
856 282 315 -2187 0
856 -282 -315 -2187 0
856 282 -315 2187 0
856 -370 1078 4380 0
856 370 1078 -4380 0
856 -370 -1078 -4380 0
856 370 -1078 4380 0
856 -283 316 2194 0
856 283 316 -2194 0
856 -283 -316 -2194 0
856 283 -316 2194 0
856 -371 1079 4396 0
856 371 1079 -4396 0
856 -371 -1079 -4396 0
856 371 -1079 4396 0
856 -284 317 2201 0
856 284 317 -2201 0
856 -284 -317 -2201 0
856 284 -317 2201 0
856 -372 1080 4410 0
856 372 1080 -4410 0
856 -372 -1080 -4410 0
856 372 -1080 4410 0
856 -285 318 2208 0
856 285 318 -2208 0
856 -285 -318 -2208 0
856 285 -318 2208 0
856 -373 1081 4424 0
856 373 1081 -4424 0
856 -373 -1081 -4424 0
856 373 -1081 4424 0
856 -286 319 2215 0
856 286 319 -2215 0
856 -286 -319 -2215 0
856 286 -319 2215 0
856 -374 1082 4442 0
856 374 1082 -4442 0
856 -374 -1082 -4442 0
856 374 -1082 4442 0
856 -287 320 2222 0
856 287 320 -2222 0
856 -287 -320 -2222 0
856 287 -320 2222 0
856 -375 1083 4458 0
856 375 1083 -4458 0
856 -375 -1083 -4458 0
856 375 -1083 4458 0
856 -288 311 2229 0
856 288 311 -2229 0
856 -288 -311 -2229 0
856 288 -311 2229 0
856 -289 312 2236 0
856 289 312 -2236 0
856 -289 -312 -2236 0
856 289 -312 2236 0
856 -376 1084 4474 0
856 376 1084 -4474 0
856 -376 -1084 -4474 0
856 376 -1084 4474 0
856 -290 313 2243 0
856 290 313 -2243 0
856 -290 -313 -2243 0
856 290 -313 2243 0
856 -377 1085 4490 0
856 377 1085 -4490 0
856 -377 -1085 -4490 0
856 377 -1085 4490 0
856 -281 314 2250 0
856 281 314 -2250 0
856 -281 -314 -2250 0
856 281 -314 2250 0
856 -378 1086 4506 0
856 378 1086 -4506 0
856 -378 -1086 -4506 0
856 378 -1086 4506 0
856 -292 325 2257 0
856 292 325 -2257 0
856 -292 -325 -2257 0
856 292 -325 2257 0
856 -379 1087 4520 0
856 379 1087 -4520 0
856 -379 -1087 -4520 0
856 379 -1087 4520 0
856 -293 326 2264 0
856 293 326 -2264 0
856 -293 -326 -2264 0
856 293 -326 2264 0
856 -380 1088 4536 0
856 380 1088 -4536 0
856 -380 -1088 -4536 0
856 380 -1088 4536 0
856 -602 615 1137 0
856 602 615 -1137 0
856 -602 -615 -1137 0
856 602 -615 1137 0
856 -294 327 2271 0
856 294 327 -2271 0
856 -294 -327 -2271 0
856 294 -327 2271 0
856 -295 328 2278 0
856 295 328 -2278 0
856 -295 -328 -2278 0
856 295 -328 2278 0
856 -381 1089 4552 0
856 381 1089 -4552 0
856 -381 -1089 -4552 0
856 381 -1089 4552 0
856 -382 1090 4568 0
856 382 1090 -4568 0
856 -382 -1090 -4568 0
856 382 -1090 4568 0
856 -296 329 2285 0
856 296 329 -2285 0
856 -296 -329 -2285 0
856 296 -329 2285 0
856 -603 616 1144 0
856 603 616 -1144 0
856 -603 -616 -1144 0
856 603 -616 1144 0
856 -297 330 2292 0
856 297 330 -2292 0
856 -297 -330 -2292 0
856 297 -330 2292 0
856 -383 1091 4586 0
856 383 1091 -4586 0
856 -383 -1091 -4586 0
856 383 -1091 4586 0
856 -384 1092 4600 0
856 384 1092 -4600 0
856 -384 -1092 -4600 0
856 384 -1092 4600 0
856 -298 321 2299 0
856 298 321 -2299 0
856 -298 -321 -2299 0
856 298 -321 2299 0
856 -604 617 1151 0
856 604 617 -1151 0
856 -604 -617 -1151 0
856 604 -617 1151 0
856 -605 618 1158 0
856 605 618 -1158 0
856 -605 -618 -1158 0
856 605 -618 1158 0
856 -299 322 2306 0
856 299 322 -2306 0
856 -299 -322 -2306 0
856 299 -322 2306 0
856 -303 336 2334 0
856 303 336 -2334 0
856 -303 -336 -2334 0
856 303 -336 2334 0
856 -385 1093 4614 0
856 385 1093 -4614 0
856 -385 -1093 -4614 0
856 385 -1093 4614 0
856 -300 323 2313 0
856 300 323 -2313 0
856 -300 -323 -2313 0
856 300 -323 2313 0
856 -386 1094 4632 0
856 386 1094 -4632 0
856 -386 -1094 -4632 0
856 386 -1094 4632 0
856 -606 619 1165 0
856 606 619 -1165 0
856 -606 -619 -1165 0
856 606 -619 1165 0
856 -291 324 2320 0
856 291 324 -2320 0
856 -291 -324 -2320 0
856 291 -324 2320 0
856 -387 1095 4646 0
856 387 1095 -4646 0
856 -387 -1095 -4646 0
856 387 -1095 4646 0
856 -302 335 2327 0
856 302 335 -2327 0
856 -302 -335 -2327 0
856 302 -335 2327 0
856 -388 1096 4660 0
856 388 1096 -4660 0
856 -388 -1096 -4660 0
856 388 -1096 4660 0
856 -389 1097 4674 0
856 389 1097 -4674 0
856 -389 -1097 -4674 0
856 389 -1097 4674 0
856 -607 620 1172 0
856 607 620 -1172 0
856 -607 -620 -1172 0
856 607 -620 1172 0
856 -304 337 2341 0
856 304 337 -2341 0
856 -304 -337 -2341 0
856 304 -337 2341 0
856 -390 1098 4692 0
856 390 1098 -4692 0
856 -390 -1098 -4692 0
856 390 -1098 4692 0
856 -305 338 2348 0
856 305 338 -2348 0
856 -305 -338 -2348 0
856 305 -338 2348 0
856 -410 1099 4712 0
856 410 1099 -4712 0
856 -410 -1099 -4712 0
856 410 -1099 4712 0
856 -608 611 1179 0
856 608 611 -1179 0
856 -608 -611 -1179 0
856 608 -611 1179 0
856 -306 339 2355 0
856 306 339 -2355 0
856 -306 -339 -2355 0
856 306 -339 2355 0
856 -420 1100 4732 0
856 420 1100 -4732 0
856 -420 -1100 -4732 0
856 420 -1100 4732 0
856 -307 340 2362 0
856 307 340 -2362 0
856 -307 -340 -2362 0
856 307 -340 2362 0
856 -421 1101 4748 0
856 421 1101 -4748 0
856 -421 -1101 -4748 0
856 421 -1101 4748 0
856 -609 612 1186 0
856 609 612 -1186 0
856 -609 -612 -1186 0
856 609 -612 1186 0
856 -308 331 2369 0
856 308 331 -2369 0
856 -308 -331 -2369 0
856 308 -331 2369 0
856 -422 1102 4762 0
856 422 1102 -4762 0
856 -422 -1102 -4762 0
856 422 -1102 4762 0
856 -309 332 2376 0
856 309 332 -2376 0
856 -309 -332 -2376 0
856 309 -332 2376 0
856 -423 1103 4776 0
856 423 1103 -4776 0
856 -423 -1103 -4776 0
856 423 -1103 4776 0
856 -610 613 1193 0
856 610 613 -1193 0
856 -610 -613 -1193 0
856 610 -613 1193 0
856 -310 333 2383 0
856 310 333 -2383 0
856 -310 -333 -2383 0
856 310 -333 2383 0
856 -301 334 2390 0
856 301 334 -2390 0
856 -301 -334 -2390 0
856 301 -334 2390 0
856 -424 1104 4794 0
856 424 1104 -4794 0
856 -424 -1104 -4794 0
856 424 -1104 4794 0
856 -283 319 2397 0
856 283 319 -2397 0
856 -283 -319 -2397 0
856 283 -319 2397 0
856 -425 1105 4810 0
856 425 1105 -4810 0
856 -425 -1105 -4810 0
856 425 -1105 4810 0
856 -426 1106 4826 0
856 426 1106 -4826 0
856 -426 -1106 -4826 0
856 426 -1106 4826 0
856 -601 614 1200 0
856 601 614 -1200 0
856 -601 -614 -1200 0
856 601 -614 1200 0
856 -284 320 2404 0
856 284 320 -2404 0
856 -284 -320 -2404 0
856 284 -320 2404 0
856 -427 1107 4842 0
856 427 1107 -4842 0
856 -427 -1107 -4842 0
856 427 -1107 4842 0
856 -428 1108 4858 0
856 428 1108 -4858 0
856 -428 -1108 -4858 0
856 428 -1108 4858 0
856 -285 311 2411 0
856 285 311 -2411 0
856 -285 -311 -2411 0
856 285 -311 2411 0
856 -603 619 1207 0
856 603 619 -1207 0
856 -603 -619 -1207 0
856 603 -619 1207 0
856 -286 312 2418 0
856 286 312 -2418 0
856 -286 -312 -2418 0
856 286 -312 2418 0
856 -300 328 2684 0
856 300 328 -2684 0
856 -300 -328 -2684 0
856 300 -328 2684 0
856 -287 313 2425 0
856 287 313 -2425 0
856 -287 -313 -2425 0
856 287 -313 2425 0
856 -604 620 1214 0
856 604 620 -1214 0
856 -604 -620 -1214 0
856 604 -620 1214 0
856 -651 1131 5372 0
856 651 1131 -5372 0
856 -651 -1131 -5372 0
856 651 -1131 5372 0
856 -605 611 1221 0
856 605 611 -1221 0
856 -605 -611 -1221 0
856 605 -611 1221 0
856 -606 612 1228 0
856 606 612 -1228 0
856 -606 -612 -1228 0
856 606 -612 1228 0
856 -288 314 2432 0
856 288 314 -2432 0
856 -288 -314 -2432 0
856 288 -314 2432 0
856 -429 1109 4872 0
856 429 1109 -4872 0
856 -429 -1109 -4872 0
856 429 -1109 4872 0
856 -289 315 2439 0
856 289 315 -2439 0
856 -289 -315 -2439 0
856 289 -315 2439 0
856 -431 1110 4888 0
856 431 1110 -4888 0
856 -431 -1110 -4888 0
856 431 -1110 4888 0
856 -290 316 2446 0
856 290 316 -2446 0
856 -290 -316 -2446 0
856 290 -316 2446 0
856 -281 317 2453 0
856 281 317 -2453 0
856 -281 -317 -2453 0
856 281 -317 2453 0
856 -432 1111 4904 0
856 432 1111 -4904 0
856 -432 -1111 -4904 0
856 432 -1111 4904 0
856 -282 318 2460 0
856 282 318 -2460 0
856 -282 -318 -2460 0
856 282 -318 2460 0
856 -433 1112 4922 0
856 433 1112 -4922 0
856 -433 -1112 -4922 0
856 433 -1112 4922 0
856 -607 613 1235 0
856 607 613 -1235 0
856 -607 -613 -1235 0
856 607 -613 1235 0
856 -293 329 2467 0
856 293 329 -2467 0
856 -293 -329 -2467 0
856 293 -329 2467 0
856 -434 1113 4936 0
856 434 1113 -4936 0
856 -434 -1113 -4936 0
856 434 -1113 4936 0
856 -439 1118 5010 0
856 439 1118 -5010 0
856 -439 -1118 -5010 0
856 439 -1118 5010 0
856 -435 1114 4950 0
856 435 1114 -4950 0
856 -435 -1114 -4950 0
856 435 -1114 4950 0
856 -294 330 2474 0
856 294 330 -2474 0
856 -294 -330 -2474 0
856 294 -330 2474 0
856 -436 1115 4968 0
856 436 1115 -4968 0
856 -436 -1115 -4968 0
856 436 -1115 4968 0
856 -608 614 1242 0
856 608 614 -1242 0
856 -608 -614 -1242 0
856 608 -614 1242 0
856 -295 321 2481 0
856 295 321 -2481 0
856 -295 -321 -2481 0
856 295 -321 2481 0
856 -437 1116 4982 0
856 437 1116 -4982 0
856 -437 -1116 -4982 0
856 437 -1116 4982 0
856 -296 322 2488 0
856 296 322 -2488 0
856 -296 -322 -2488 0
856 296 -322 2488 0
856 -438 1117 4996 0
856 438 1117 -4996 0
856 -438 -1117 -4996 0
856 438 -1117 4996 0
856 -609 615 1249 0
856 609 615 -1249 0
856 -609 -615 -1249 0
856 609 -615 1249 0
856 -297 323 2495 0
856 297 323 -2495 0
856 -297 -323 -2495 0
856 297 -323 2495 0
856 -298 324 2502 0
856 298 324 -2502 0
856 -298 -324 -2502 0
856 298 -324 2502 0
856 -460 1119 5030 0
856 460 1119 -5030 0
856 -460 -1119 -5030 0
856 460 -1119 5030 0
856 -299 325 2509 0
856 299 325 -2509 0
856 -299 -325 -2509 0
856 299 -325 2509 0
856 -610 616 1256 0
856 610 616 -1256 0
856 -610 -616 -1256 0
856 610 -616 1256 0
856 -300 326 2516 0
856 300 326 -2516 0
856 -300 -326 -2516 0
856 300 -326 2516 0
856 -470 1120 5050 0
856 470 1120 -5050 0
856 -470 -1120 -5050 0
856 470 -1120 5050 0
856 -291 327 2523 0
856 291 327 -2523 0
856 -291 -327 -2523 0
856 291 -327 2523 0
856 -471 1121 5066 0
856 471 1121 -5066 0
856 -471 -1121 -5066 0
856 471 -1121 5066 0
856 -481 1122 5082 0
856 481 1122 -5082 0
856 -481 -1122 -5082 0
856 481 -1122 5082 0
856 -601 617 1263 0
856 601 617 -1263 0
856 -601 -617 -1263 0
856 601 -617 1263 0
856 -510 1123 5102 0
856 510 1123 -5102 0
856 -510 -1123 -5102 0
856 510 -1123 5102 0
856 -292 328 2530 0
856 292 328 -2530 0
856 -292 -328 -2530 0
856 292 -328 2530 0
856 -303 339 2537 0
856 303 339 -2537 0
856 -303 -339 -2537 0
856 303 -339 2537 0
856 -602 618 1270 0
856 602 618 -1270 0
856 -602 -618 -1270 0
856 602 -618 1270 0
856 -304 340 2544 0
856 304 340 -2544 0
856 -304 -340 -2544 0
856 304 -340 2544 0
856 -305 331 2551 0
856 305 331 -2551 0
856 -305 -331 -2551 0
856 305 -331 2551 0
856 -306 332 2558 0
856 306 332 -2558 0
856 -306 -332 -2558 0
856 306 -332 2558 0
856 -609 617 1277 0
856 609 617 -1277 0
856 -609 -617 -1277 0
856 609 -617 1277 0
856 -610 618 1284 0
856 610 618 -1284 0
856 -610 -618 -1284 0
856 610 -618 1284 0
856 -307 333 2565 0
856 307 333 -2565 0
856 -307 -333 -2565 0
856 307 -333 2565 0
856 -520 1124 5122 0
856 520 1124 -5122 0
856 -520 -1124 -5122 0
856 520 -1124 5122 0
856 -308 334 2572 0
856 308 334 -2572 0
856 -308 -334 -2572 0
856 308 -334 2572 0
856 -521 1125 5138 0
856 521 1125 -5138 0
856 -521 -1125 -5138 0
856 521 -1125 5138 0
856 -522 1126 5152 0
856 522 1126 -5152 0
856 -522 -1126 -5152 0
856 522 -1126 5152 0
856 -601 619 1291 0
856 601 619 -1291 0
856 -601 -619 -1291 0
856 601 -619 1291 0
856 -309 335 2579 0
856 309 335 -2579 0
856 -309 -335 -2579 0
856 309 -335 2579 0
856 -531 1127 5168 0
856 531 1127 -5168 0
856 -531 -1127 -5168 0
856 531 -1127 5168 0
856 -310 336 2586 0
856 310 336 -2586 0
856 -310 -336 -2586 0
856 310 -336 2586 0
856 -532 1128 5184 0
856 532 1128 -5184 0
856 -532 -1128 -5184 0
856 532 -1128 5184 0
856 -602 620 1298 0
856 602 620 -1298 0
856 -602 -620 -1298 0
856 602 -620 1298 0
856 -301 337 2593 0
856 301 337 -2593 0
856 -301 -337 -2593 0
856 301 -337 2593 0
856 -302 338 2600 0
856 302 338 -2600 0
856 -302 -338 -2600 0
856 302 -338 2600 0
856 -603 611 1305 0
856 603 611 -1305 0
856 -603 -611 -1305 0
856 603 -611 1305 0
856 -289 317 2607 0
856 289 317 -2607 0
856 -289 -317 -2607 0
856 289 -317 2607 0
856 -290 318 2614 0
856 290 318 -2614 0
856 -290 -318 -2614 0
856 290 -318 2614 0
856 -281 319 2621 0
856 281 319 -2621 0
856 -281 -319 -2621 0
856 281 -319 2621 0
856 -604 612 1312 0
856 604 612 -1312 0
856 -604 -612 -1312 0
856 604 -612 1312 0
856 -282 320 2628 0
856 282 320 -2628 0
856 -282 -320 -2628 0
856 282 -320 2628 0
856 -621 1129 5248 0
856 621 1129 -5248 0
856 -621 -1129 -5248 0
856 621 -1129 5248 0
856 -283 311 2635 0
856 283 311 -2635 0
856 -283 -311 -2635 0
856 283 -311 2635 0
856 -605 613 1319 0
856 605 613 -1319 0
856 -605 -613 -1319 0
856 605 -613 1319 0
856 -284 312 2642 0
856 284 312 -2642 0
856 -284 -312 -2642 0
856 284 -312 2642 0
856 -606 614 1326 0
856 606 614 -1326 0
856 -606 -614 -1326 0
856 606 -614 1326 0
856 -631 1130 5298 0
856 631 1130 -5298 0
856 -631 -1130 -5298 0
856 631 -1130 5298 0
856 -285 313 2649 0
856 285 313 -2649 0
856 -285 -313 -2649 0
856 285 -313 2649 0
856 -607 615 1333 0
856 607 615 -1333 0
856 -607 -615 -1333 0
856 607 -615 1333 0
856 -286 314 2656 0
856 286 314 -2656 0
856 -286 -314 -2656 0
856 286 -314 2656 0
856 -288 316 2670 0
856 288 316 -2670 0
856 -288 -316 -2670 0
856 288 -316 2670 0
856 -287 315 2663 0
856 287 315 -2663 0
856 -287 -315 -2663 0
856 287 -315 2663 0
856 -299 327 2677 0
856 299 327 -2677 0
856 -299 -327 -2677 0
856 299 -327 2677 0
856 -608 616 1340 0
856 608 616 -1340 0
856 -608 -616 -1340 0
856 608 -616 1340 0
856 -291 329 2691 0
856 291 329 -2691 0
856 -291 -329 -2691 0
856 291 -329 2691 0
856 -601 620 1347 0
856 601 620 -1347 0
856 -601 -620 -1347 0
856 601 -620 1347 0
856 -292 330 2698 0
856 292 330 -2698 0
856 -292 -330 -2698 0
856 292 -330 2698 0
856 -602 611 1354 0
856 602 611 -1354 0
856 -602 -611 -1354 0
856 602 -611 1354 0
856 -293 321 2705 0
856 293 321 -2705 0
856 -293 -321 -2705 0
856 293 -321 2705 0
856 -294 322 2712 0
856 294 322 -2712 0
856 -294 -322 -2712 0
856 294 -322 2712 0
856 -295 323 2719 0
856 295 323 -2719 0
856 -295 -323 -2719 0
856 295 -323 2719 0
856 -296 324 2726 0
856 296 324 -2726 0
856 -296 -324 -2726 0
856 296 -324 2726 0
856 -603 612 1361 0
856 603 612 -1361 0
856 -603 -612 -1361 0
856 603 -612 1361 0
856 -661 1132 5450 0
856 661 1132 -5450 0
856 -661 -1132 -5450 0
856 661 -1132 5450 0
856 -297 325 2733 0
856 297 325 -2733 0
856 -297 -325 -2733 0
856 297 -325 2733 0
856 -604 613 1368 0
856 604 613 -1368 0
856 -604 -613 -1368 0
856 604 -613 1368 0
856 -298 326 2740 0
856 298 326 -2740 0
856 -298 -326 -2740 0
856 298 -326 2740 0
856 -309 337 2747 0
856 309 337 -2747 0
856 -309 -337 -2747 0
856 309 -337 2747 0
856 -605 614 1375 0
856 605 614 -1375 0
856 -605 -614 -1375 0
856 605 -614 1375 0
856 -310 338 2754 0
856 310 338 -2754 0
856 -310 -338 -2754 0
856 310 -338 2754 0
856 -301 339 2761 0
856 301 339 -2761 0
856 -301 -339 -2761 0
856 301 -339 2761 0
856 -606 615 1382 0
856 606 615 -1382 0
856 -606 -615 -1382 0
856 606 -615 1382 0
856 -302 340 2768 0
856 302 340 -2768 0
856 -302 -340 -2768 0
856 302 -340 2768 0
856 -303 331 2775 0
856 303 331 -2775 0
856 -303 -331 -2775 0
856 303 -331 2775 0
856 -607 616 1389 0
856 607 616 -1389 0
856 -607 -616 -1389 0
856 607 -616 1389 0
856 -304 332 2782 0
856 304 332 -2782 0
856 -304 -332 -2782 0
856 304 -332 2782 0
856 -305 333 2789 0
856 305 333 -2789 0
856 -305 -333 -2789 0
856 305 -333 2789 0
856 -608 617 1396 0
856 608 617 -1396 0
856 -608 -617 -1396 0
856 608 -617 1396 0
856 -306 334 2796 0
856 306 334 -2796 0
856 -306 -334 -2796 0
856 306 -334 2796 0
856 -307 335 2803 0
856 307 335 -2803 0
856 -307 -335 -2803 0
856 307 -335 2803 0
856 -308 336 2810 0
856 308 336 -2810 0
856 -308 -336 -2810 0
856 308 -336 2810 0
856 -609 618 1403 0
856 609 618 -1403 0
856 -609 -618 -1403 0
856 609 -618 1403 0
856 -610 619 1410 0
856 610 619 -1410 0
856 -610 -619 -1410 0
856 610 -619 1410 0
856 -281 320 2817 0
856 281 320 -2817 0
856 -281 -320 -2817 0
856 281 -320 2817 0
856 -282 311 2824 0
856 282 311 -2824 0
856 -282 -311 -2824 0
856 282 -311 2824 0
856 -283 312 2831 0
856 283 312 -2831 0
856 -283 -312 -2831 0
856 283 -312 2831 0
856 -609 620 1417 0
856 609 620 -1417 0
856 -609 -620 -1417 0
856 609 -620 1417 0
856 -284 313 2838 0
856 284 313 -2838 0
856 -284 -313 -2838 0
856 284 -313 2838 0
856 -285 314 2845 0
856 285 314 -2845 0
856 -285 -314 -2845 0
856 285 -314 2845 0
856 -610 611 1424 0
856 610 611 -1424 0
856 -610 -611 -1424 0
856 610 -611 1424 0
856 -286 315 2852 0
856 286 315 -2852 0
856 -286 -315 -2852 0
856 286 -315 2852 0
856 -287 316 2859 0
856 287 316 -2859 0
856 -287 -316 -2859 0
856 287 -316 2859 0
856 -288 317 2866 0
856 288 317 -2866 0
856 -288 -317 -2866 0
856 288 -317 2866 0
856 -601 612 1431 0
856 601 612 -1431 0
856 -601 -612 -1431 0
856 601 -612 1431 0
856 -289 318 2873 0
856 289 318 -2873 0
856 -289 -318 -2873 0
856 289 -318 2873 0
856 -602 613 1438 0
856 602 613 -1438 0
856 -602 -613 -1438 0
856 602 -613 1438 0
856 -290 319 2880 0
856 290 319 -2880 0
856 -290 -319 -2880 0
856 290 -319 2880 0
856 -291 330 2887 0
856 291 330 -2887 0
856 -291 -330 -2887 0
856 291 -330 2887 0
856 -603 614 1445 0
856 603 614 -1445 0
856 -603 -614 -1445 0
856 603 -614 1445 0
856 -292 321 2894 0
856 292 321 -2894 0
856 -292 -321 -2894 0
856 292 -321 2894 0
856 -293 322 2901 0
856 293 322 -2901 0
856 -293 -322 -2901 0
856 293 -322 2901 0
856 -604 615 1452 0
856 604 615 -1452 0
856 -604 -615 -1452 0
856 604 -615 1452 0
856 -294 323 2908 0
856 294 323 -2908 0
856 -294 -323 -2908 0
856 294 -323 2908 0
856 -295 324 2915 0
856 295 324 -2915 0
856 -295 -324 -2915 0
856 295 -324 2915 0
856 -296 325 2922 0
856 296 325 -2922 0
856 -296 -325 -2922 0
856 296 -325 2922 0
856 -605 616 1459 0
856 605 616 -1459 0
856 -605 -616 -1459 0
856 605 -616 1459 0
856 -297 326 2929 0
856 297 326 -2929 0
856 -297 -326 -2929 0
856 297 -326 2929 0
856 -606 617 1466 0
856 606 617 -1466 0
856 -606 -617 -1466 0
856 606 -617 1466 0
856 -298 327 2936 0
856 298 327 -2936 0
856 -298 -327 -2936 0
856 298 -327 2936 0
856 -299 328 2943 0
856 299 328 -2943 0
856 -299 -328 -2943 0
856 299 -328 2943 0
856 -300 329 2950 0
856 300 329 -2950 0
856 -300 -329 -2950 0
856 300 -329 2950 0
856 -607 618 1473 0
856 607 618 -1473 0
856 -607 -618 -1473 0
856 607 -618 1473 0
856 -301 340 2957 0
856 301 340 -2957 0
856 -301 -340 -2957 0
856 301 -340 2957 0
856 -608 619 1480 0
856 608 619 -1480 0
856 -608 -619 -1480 0
856 608 -619 1480 0
856 -302 331 2964 0
856 302 331 -2964 0
856 -302 -331 -2964 0
856 302 -331 2964 0
856 -303 332 2971 0
856 303 332 -2971 0
856 -303 -332 -2971 0
856 303 -332 2971 0
856 -632 645 1487 0
856 632 645 -1487 0
856 -632 -645 -1487 0
856 632 -645 1487 0
856 -304 333 2978 0
856 304 333 -2978 0
856 -304 -333 -2978 0
856 304 -333 2978 0
856 -305 334 2985 0
856 305 334 -2985 0
856 -305 -334 -2985 0
856 305 -334 2985 0
856 -633 646 1494 0
856 633 646 -1494 0
856 -633 -646 -1494 0
856 633 -646 1494 0
856 -306 335 2992 0
856 306 335 -2992 0
856 -306 -335 -2992 0
856 306 -335 2992 0
856 -307 336 2999 0
856 307 336 -2999 0
856 -307 -336 -2999 0
856 307 -336 2999 0
856 -634 647 1501 0
856 634 647 -1501 0
856 -634 -647 -1501 0
856 634 -647 1501 0
856 -308 337 3006 0
856 308 337 -3006 0
856 -308 -337 -3006 0
856 308 -337 3006 0
856 -309 338 3013 0
856 309 338 -3013 0
856 -309 -338 -3013 0
856 309 -338 3013 0
856 -635 648 1508 0
856 635 648 -1508 0
856 -635 -648 -1508 0
856 635 -648 1508 0
856 -310 339 3020 0
856 310 339 -3020 0
856 -310 -339 -3020 0
856 310 -339 3020 0
856 -289 320 3027 0
856 289 320 -3027 0
856 -289 -320 -3027 0
856 289 -320 3027 0
856 -290 311 3034 0
856 290 311 -3034 0
856 -290 -311 -3034 0
856 290 -311 3034 0
856 -636 649 1515 0
856 636 649 -1515 0
856 -636 -649 -1515 0
856 636 -649 1515 0
856 -281 312 3041 0
856 281 312 -3041 0
856 -281 -312 -3041 0
856 281 -312 3041 0
856 -637 650 1522 0
856 637 650 -1522 0
856 -637 -650 -1522 0
856 637 -650 1522 0
856 -282 313 3048 0
856 282 313 -3048 0
856 -282 -313 -3048 0
856 282 -313 3048 0
856 -283 314 3055 0
856 283 314 -3055 0
856 -283 -314 -3055 0
856 283 -314 3055 0
856 -638 641 1529 0
856 638 641 -1529 0
856 -638 -641 -1529 0
856 638 -641 1529 0
856 -284 315 3062 0
856 284 315 -3062 0
856 -284 -315 -3062 0
856 284 -315 3062 0
856 -285 316 3069 0
856 285 316 -3069 0
856 -285 -316 -3069 0
856 285 -316 3069 0
856 -639 642 1536 0
856 639 642 -1536 0
856 -639 -642 -1536 0
856 639 -642 1536 0
856 -286 317 3076 0
856 286 317 -3076 0
856 -286 -317 -3076 0
856 286 -317 3076 0
856 -287 318 3083 0
856 287 318 -3083 0
856 -287 -318 -3083 0
856 287 -318 3083 0
856 -640 643 1543 0
856 640 643 -1543 0
856 -640 -643 -1543 0
856 640 -643 1543 0
856 -288 319 3090 0
856 288 319 -3090 0
856 -288 -319 -3090 0
856 288 -319 3090 0
856 -299 330 3097 0
856 299 330 -3097 0
856 -299 -330 -3097 0
856 299 -330 3097 0
856 -631 644 1550 0
856 631 644 -1550 0
856 -631 -644 -1550 0
856 631 -644 1550 0
856 -300 321 3104 0
856 300 321 -3104 0
856 -300 -321 -3104 0
856 300 -321 3104 0
856 -291 322 3111 0
856 291 322 -3111 0
856 -291 -322 -3111 0
856 291 -322 3111 0
856 -633 649 1557 0
856 633 649 -1557 0
856 -633 -649 -1557 0
856 633 -649 1557 0
856 -292 323 3118 0
856 292 323 -3118 0
856 -292 -323 -3118 0
856 292 -323 3118 0
856 -293 324 3125 0
856 293 324 -3125 0
856 -293 -324 -3125 0
856 293 -324 3125 0
856 -634 650 1564 0
856 634 650 -1564 0
856 -634 -650 -1564 0
856 634 -650 1564 0
856 -294 325 3132 0
856 294 325 -3132 0
856 -294 -325 -3132 0
856 294 -325 3132 0
856 -295 326 3139 0
856 295 326 -3139 0
856 -295 -326 -3139 0
856 295 -326 3139 0
856 -296 327 3146 0
856 296 327 -3146 0
856 -296 -327 -3146 0
856 296 -327 3146 0
856 -635 641 1571 0
856 635 641 -1571 0
856 -635 -641 -1571 0
856 635 -641 1571 0
856 -297 328 3153 0
856 297 328 -3153 0
856 -297 -328 -3153 0
856 297 -328 3153 0
856 -636 642 1578 0
856 636 642 -1578 0
856 -636 -642 -1578 0
856 636 -642 1578 0
856 -298 329 3160 0
856 298 329 -3160 0
856 -298 -329 -3160 0
856 298 -329 3160 0
856 -309 340 3167 0
856 309 340 -3167 0
856 -309 -340 -3167 0
856 309 -340 3167 0
856 -310 331 3174 0
856 310 331 -3174 0
856 -310 -331 -3174 0
856 310 -331 3174 0
856 -637 643 1585 0
856 637 643 -1585 0
856 -637 -643 -1585 0
856 637 -643 1585 0
856 -301 332 3181 0
856 301 332 -3181 0
856 -301 -332 -3181 0
856 301 -332 3181 0
856 -638 644 1592 0
856 638 644 -1592 0
856 -638 -644 -1592 0
856 638 -644 1592 0
856 -302 333 3188 0
856 302 333 -3188 0
856 -302 -333 -3188 0
856 302 -333 3188 0
856 -303 334 3195 0
856 303 334 -3195 0
856 -303 -334 -3195 0
856 303 -334 3195 0
856 -639 645 1599 0
856 639 645 -1599 0
856 -639 -645 -1599 0
856 639 -645 1599 0
856 -304 335 3202 0
856 304 335 -3202 0
856 -304 -335 -3202 0
856 304 -335 3202 0
856 -305 336 3209 0
856 305 336 -3209 0
856 -305 -336 -3209 0
856 305 -336 3209 0
856 -640 646 1606 0
856 640 646 -1606 0
856 -640 -646 -1606 0
856 640 -646 1606 0
856 -306 337 3216 0
856 306 337 -3216 0
856 -306 -337 -3216 0
856 306 -337 3216 0
856 -307 338 3223 0
856 307 338 -3223 0
856 -307 -338 -3223 0
856 307 -338 3223 0
856 -631 647 1613 0
856 631 647 -1613 0
856 -631 -647 -1613 0
856 631 -647 1613 0
856 -308 339 3230 0
856 308 339 -3230 0
856 -308 -339 -3230 0
856 308 -339 3230 0
856 -632 648 1620 0
856 632 648 -1620 0
856 -632 -648 -1620 0
856 632 -648 1620 0
856 -60 1021 3250 0
856 60 1021 -3250 0
856 -60 -1021 -3250 0
856 60 -1021 3250 0
856 -639 647 1627 0
856 639 647 -1627 0
856 -639 -647 -1627 0
856 639 -647 1627 0
856 -640 648 1634 0
856 640 648 -1634 0
856 -640 -648 -1634 0
856 640 -648 1634 0
856 -70 1022 3270 0
856 70 1022 -3270 0
856 -70 -1022 -3270 0
856 70 -1022 3270 0
856 -631 649 1641 0
856 631 649 -1641 0
856 -631 -649 -1641 0
856 631 -649 1641 0
856 -80 1023 3290 0
856 80 1023 -3290 0
856 -80 -1023 -3290 0
856 80 -1023 3290 0
856 -632 650 1648 0
856 632 650 -1648 0
856 -632 -650 -1648 0
856 632 -650 1648 0
856 -90 1024 3310 0
856 90 1024 -3310 0
856 -90 -1024 -3310 0
856 90 -1024 3310 0
856 -633 641 1655 0
856 633 641 -1655 0
856 -633 -641 -1655 0
856 633 -641 1655 0
856 -634 642 1662 0
856 634 642 -1662 0
856 -634 -642 -1662 0
856 634 -642 1662 0
856 -110 1025 3330 0
856 110 1025 -3330 0
856 -110 -1025 -3330 0
856 110 -1025 3330 0
856 -635 643 1669 0
856 635 643 -1669 0
856 -635 -643 -1669 0
856 635 -643 1669 0
856 -120 1026 3350 0
856 120 1026 -3350 0
856 -120 -1026 -3350 0
856 120 -1026 3350 0
856 -636 644 1676 0
856 636 644 -1676 0
856 -636 -644 -1676 0
856 636 -644 1676 0
856 -130 1027 3370 0
856 130 1027 -3370 0
856 -130 -1027 -3370 0
856 130 -1027 3370 0
856 -637 645 1683 0
856 637 645 -1683 0
856 -637 -645 -1683 0
856 637 -645 1683 0
856 -638 646 1690 0
856 638 646 -1690 0
856 -638 -646 -1690 0
856 638 -646 1690 0
856 -140 1028 3390 0
856 140 1028 -3390 0
856 -140 -1028 -3390 0
856 140 -1028 3390 0
856 -631 650 1697 0
856 631 650 -1697 0
856 -631 -650 -1697 0
856 631 -650 1697 0
856 -151 1029 3406 0
856 151 1029 -3406 0
856 -151 -1029 -3406 0
856 151 -1029 3406 0
856 -632 641 1704 0
856 632 641 -1704 0
856 -632 -641 -1704 0
856 632 -641 1704 0
856 -152 1030 3420 0
856 152 1030 -3420 0
856 -152 -1030 -3420 0
856 152 -1030 3420 0
856 -633 642 1711 0
856 633 642 -1711 0
856 -633 -642 -1711 0
856 633 -642 1711 0
856 -153 1031 3434 0
856 153 1031 -3434 0
856 -153 -1031 -3434 0
856 153 -1031 3434 0
856 -634 643 1718 0
856 634 643 -1718 0
856 -634 -643 -1718 0
856 634 -643 1718 0
856 -635 644 1725 0
856 635 644 -1725 0
856 -635 -644 -1725 0
856 635 -644 1725 0
856 -154 1032 3452 0
856 154 1032 -3452 0
856 -154 -1032 -3452 0
856 154 -1032 3452 0
856 -636 645 1732 0
856 636 645 -1732 0
856 -636 -645 -1732 0
856 636 -645 1732 0
856 -155 1033 3468 0
856 155 1033 -3468 0
856 -155 -1033 -3468 0
856 155 -1033 3468 0
856 -637 646 1739 0
856 637 646 -1739 0
856 -637 -646 -1739 0
856 637 -646 1739 0
856 -156 1034 3484 0
856 156 1034 -3484 0
856 -156 -1034 -3484 0
856 156 -1034 3484 0
856 -638 647 1746 0
856 638 647 -1746 0
856 -638 -647 -1746 0
856 638 -647 1746 0
856 -157 1035 3500 0
856 157 1035 -3500 0
856 -157 -1035 -3500 0
856 157 -1035 3500 0
856 -639 648 1753 0
856 639 648 -1753 0
856 -639 -648 -1753 0
856 639 -648 1753 0
856 -158 1036 3516 0
856 158 1036 -3516 0
856 -158 -1036 -3516 0
856 158 -1036 3516 0
856 -640 649 1760 0
856 640 649 -1760 0
856 -640 -649 -1760 0
856 640 -649 1760 0
856 -159 1037 3530 0
856 159 1037 -3530 0
856 -159 -1037 -3530 0
856 159 -1037 3530 0
856 -639 650 1767 0
856 639 650 -1767 0
856 -639 -650 -1767 0
856 639 -650 1767 0
856 -160 1038 3546 0
856 160 1038 -3546 0
856 -160 -1038 -3546 0
856 160 -1038 3546 0
856 -640 641 1774 0
856 640 641 -1774 0
856 -640 -641 -1774 0
856 640 -641 1774 0
856 -161 1039 3562 0
856 161 1039 -3562 0
856 -161 -1039 -3562 0
856 161 -1039 3562 0
856 -631 642 1781 0
856 631 642 -1781 0
856 -631 -642 -1781 0
856 631 -642 1781 0
856 -632 643 1788 0
856 632 643 -1788 0
856 -632 -643 -1788 0
856 632 -643 1788 0
856 -162 1040 3576 0
856 162 1040 -3576 0
856 -162 -1040 -3576 0
856 162 -1040 3576 0
856 -633 644 1795 0
856 633 644 -1795 0
856 -633 -644 -1795 0
856 633 -644 1795 0
856 -163 1041 3590 0
856 163 1041 -3590 0
856 -163 -1041 -3590 0
856 163 -1041 3590 0
856 -634 645 1802 0
856 634 645 -1802 0
856 -634 -645 -1802 0
856 634 -645 1802 0
856 -164 1042 3608 0
856 164 1042 -3608 0
856 -164 -1042 -3608 0
856 164 -1042 3608 0
856 -635 646 1809 0
856 635 646 -1809 0
856 -635 -646 -1809 0
856 635 -646 1809 0
856 -165 1043 3624 0
856 165 1043 -3624 0
856 -165 -1043 -3624 0
856 165 -1043 3624 0
856 -636 647 1816 0
856 636 647 -1816 0
856 -636 -647 -1816 0
856 636 -647 1816 0
856 -166 1044 3640 0
856 166 1044 -3640 0
856 -166 -1044 -3640 0
856 166 -1044 3640 0
856 -637 648 1823 0
856 637 648 -1823 0
856 -637 -648 -1823 0
856 637 -648 1823 0
856 -167 1045 3656 0
856 167 1045 -3656 0
856 -167 -1045 -3656 0
856 167 -1045 3656 0
856 -638 649 1830 0
856 638 649 -1830 0
856 -638 -649 -1830 0
856 638 -649 1830 0
856 -168 1046 3672 0
856 168 1046 -3672 0
856 -168 -1046 -3672 0
856 168 -1046 3672 0
856 -662 675 1837 0
856 662 675 -1837 0
856 -662 -675 -1837 0
856 662 -675 1837 0
856 -169 1047 3686 0
856 169 1047 -3686 0
856 -169 -1047 -3686 0
856 169 -1047 3686 0
856 -663 676 1844 0
856 663 676 -1844 0
856 -663 -676 -1844 0
856 663 -676 1844 0
856 -171 1048 3702 0
856 171 1048 -3702 0
856 -171 -1048 -3702 0
856 171 -1048 3702 0
856 -664 677 1851 0
856 664 677 -1851 0
856 -664 -677 -1851 0
856 664 -677 1851 0
856 -665 678 1858 0
856 665 678 -1858 0
856 -665 -678 -1858 0
856 665 -678 1858 0
856 -181 1049 3718 0
856 181 1049 -3718 0
856 -181 -1049 -3718 0
856 181 -1049 3718 0
856 -666 679 1865 0
856 666 679 -1865 0
856 -666 -679 -1865 0
856 666 -679 1865 0
856 -182 1050 3732 0
856 182 1050 -3732 0
856 -182 -1050 -3732 0
856 182 -1050 3732 0
856 -667 680 1872 0
856 667 680 -1872 0
856 -667 -680 -1872 0
856 667 -680 1872 0
856 -201 1051 3748 0
856 201 1051 -3748 0
856 -201 -1051 -3748 0
856 201 -1051 3748 0
856 -668 671 1879 0
856 668 671 -1879 0
856 -668 -671 -1879 0
856 668 -671 1879 0
856 -202 1052 3764 0
856 202 1052 -3764 0
856 -202 -1052 -3764 0
856 202 -1052 3764 0
856 -669 672 1886 0
856 669 672 -1886 0
856 -669 -672 -1886 0
856 669 -672 1886 0
856 -203 1053 3782 0
856 203 1053 -3782 0
856 -203 -1053 -3782 0
856 203 -1053 3782 0
856 -670 673 1893 0
856 670 673 -1893 0
856 -670 -673 -1893 0
856 670 -673 1893 0
856 -204 1054 3796 0
856 204 1054 -3796 0
856 -204 -1054 -3796 0
856 204 -1054 3796 0
856 -661 674 1900 0
856 661 674 -1900 0
856 -661 -674 -1900 0
856 661 -674 1900 0
856 -205 1055 3810 0
856 205 1055 -3810 0
856 -205 -1055 -3810 0
856 205 -1055 3810 0
856 -663 679 1907 0
856 663 679 -1907 0
856 -663 -679 -1907 0
856 663 -679 1907 0
856 -664 680 1914 0
856 664 680 -1914 0
856 -664 -680 -1914 0
856 664 -680 1914 0
856 -206 1056 3828 0
856 206 1056 -3828 0
856 -206 -1056 -3828 0
856 206 -1056 3828 0
856 -665 671 1921 0
856 665 671 -1921 0
856 -665 -671 -1921 0
856 665 -671 1921 0
856 -207 1057 3842 0
856 207 1057 -3842 0
856 -207 -1057 -3842 0
856 207 -1057 3842 0
856 -666 672 1928 0
856 666 672 -1928 0
856 -666 -672 -1928 0
856 666 -672 1928 0
856 -208 1058 3856 0
856 208 1058 -3856 0
856 -208 -1058 -3856 0
856 208 -1058 3856 0
856 -209 1059 3870 0
856 209 1059 -3870 0
856 -209 -1059 -3870 0
856 209 -1059 3870 0
856 -667 673 1935 0
856 667 673 -1935 0
856 -667 -673 -1935 0
856 667 -673 1935 0
856 -668 674 1942 0
856 668 674 -1942 0
856 -668 -674 -1942 0
856 668 -674 1942 0
856 -210 1060 3888 0
856 210 1060 -3888 0
856 -210 -1060 -3888 0
856 210 -1060 3888 0
856 -669 675 1949 0
856 669 675 -1949 0
856 -669 -675 -1949 0
856 669 -675 1949 0
856 -211 1061 3904 0
856 211 1061 -3904 0
856 -211 -1061 -3904 0
856 211 -1061 3904 0
856 -670 676 1956 0
856 670 676 -1956 0
856 -670 -676 -1956 0
856 670 -676 1956 0
856 -212 1062 3920 0
856 212 1062 -3920 0
856 -212 -1062 -3920 0
856 212 -1062 3920 0
856 -661 677 1963 0
856 661 677 -1963 0
856 -661 -677 -1963 0
856 661 -677 1963 0
856 -662 678 1970 0
856 662 678 -1970 0
856 -662 -678 -1970 0
856 662 -678 1970 0
856 -213 1063 3938 0
856 213 1063 -3938 0
856 -213 -1063 -3938 0
856 213 -1063 3938 0
856 -214 1064 3952 0
856 214 1064 -3952 0
856 -214 -1064 -3952 0
856 214 -1064 3952 0
856 -669 677 1977 0
856 669 677 -1977 0
856 -669 -677 -1977 0
856 669 -677 1977 0
856 -215 1065 3966 0
856 215 1065 -3966 0
856 -215 -1065 -3966 0
856 215 -1065 3966 0
856 -670 678 1984 0
856 670 678 -1984 0
856 -670 -678 -1984 0
856 670 -678 1984 0
856 -661 679 1991 0
856 661 679 -1991 0
856 -661 -679 -1991 0
856 661 -679 1991 0
856 -216 1066 3984 0
856 216 1066 -3984 0
856 -216 -1066 -3984 0
856 216 -1066 3984 0
856 -662 680 1998 0
856 662 680 -1998 0
856 -662 -680 -1998 0
856 662 -680 1998 0
856 -217 1067 3998 0
856 217 1067 -3998 0
856 -217 -1067 -3998 0
856 217 -1067 3998 0
856 -663 671 2005 0
856 663 671 -2005 0
856 -663 -671 -2005 0
856 663 -671 2005 0
856 -218 1068 4012 0
856 218 1068 -4012 0
856 -218 -1068 -4012 0
856 218 -1068 4012 0
856 -664 672 2012 0
856 664 672 -2012 0
856 -664 -672 -2012 0
856 664 -672 2012 0
856 -219 1069 4026 0
856 219 1069 -4026 0
856 -219 -1069 -4026 0
856 219 -1069 4026 0
856 -221 1070 4042 0
856 221 1070 -4042 0
856 -221 -1070 -4042 0
856 221 -1070 4042 0
856 -665 673 2019 0
856 665 673 -2019 0
856 -665 -673 -2019 0
856 665 -673 2019 0
856 -666 674 2026 0
856 666 674 -2026 0
856 -666 -674 -2026 0
856 666 -674 2026 0
856 -231 1071 4058 0
856 231 1071 -4058 0
856 -231 -1071 -4058 0
856 231 -1071 4058 0
856 -667 675 2033 0
856 667 675 -2033 0
856 -667 -675 -2033 0
856 667 -675 2033 0
856 -232 1072 4074 0
856 232 1072 -4074 0
856 -232 -1072 -4074 0
856 232 -1072 4074 0
856 -668 676 2040 0
856 668 676 -2040 0
856 -668 -676 -2040 0
856 668 -676 2040 0
856 -482 -539 2162 -2164 0
856 -482 539 2162 2164 0
856 482 -539 -2162 -2164 0
856 482 539 -2162 2164 0
856 -482 539 -2162 -2164 0
856 482 539 2162 -2164 0
856 -482 -539 -2162 2164 0
856 482 -539 2162 2164 0
856 -61 -64 4172 -4174 0
856 -61 64 4172 4174 0
856 61 -64 -4172 -4174 0
856 61 64 -4172 4174 0
856 -61 64 -4172 -4174 0
856 61 64 4172 -4174 0
856 -61 -64 -4172 4174 0
856 61 -64 4172 4174 0
856 -528 -578 2086 -2088 0
856 -528 578 2086 2088 0
856 528 -578 -2086 -2088 0
856 528 578 -2086 2088 0
856 -528 578 -2086 -2088 0
856 528 578 2086 -2088 0
856 -528 -578 -2086 2088 0
856 528 -578 2086 2088 0
856 -367 -368 4440 -4442 0
856 -367 368 4440 4442 0
856 367 -368 -4440 -4442 0
856 367 368 -4440 4442 0
856 -367 368 -4440 -4442 0
856 367 368 4440 -4442 0
856 -367 -368 -4440 4442 0
856 367 -368 4440 4442 0
856 344 -396 -449 -1134 0
856 344 -396 449 1134 0
856 -344 396 -449 -1134 0
856 -344 396 449 1134 0
856 -344 -396 449 -1134 0
856 344 396 449 -1134 0
856 -344 -396 -449 1134 0
856 344 396 -449 1134 0
856 -55 -56 4168 -4170 0
856 -55 56 4168 4170 0
856 55 -56 -4168 -4170 0
856 55 56 -4168 4170 0
856 -55 56 -4168 -4170 0
856 55 56 4168 -4170 0
856 -55 -56 -4168 4170 0
856 55 -56 4168 4170 0
856 373 -429 -471 -2086 0
856 373 -429 471 2086 0
856 -373 429 -471 -2086 0
856 -373 429 471 2086 0
856 -373 -429 471 -2086 0
856 373 429 471 -2086 0
856 -373 -429 -471 2086 0
856 373 429 -471 2086 0
856 -492 -550 1141 -1143 0
856 -492 550 1141 1143 0
856 492 -550 -1141 -1143 0
856 492 550 -1141 1143 0
856 -492 550 -1141 -1143 0
856 492 550 1141 -1143 0
856 -492 -550 -1141 1143 0
856 492 -550 1141 1143 0
856 -28 -36 2288 -2290 0
856 -28 36 2288 2290 0
856 28 -36 -2288 -2290 0
856 28 36 -2288 2290 0
856 -28 36 -2288 -2290 0
856 28 36 2288 -2290 0
856 -28 -36 -2288 2290 0
856 28 -36 2288 2290 0
856 -42 -45 4162 -4164 0
856 -42 45 4162 4164 0
856 42 -45 -4162 -4164 0
856 42 45 -4162 4164 0
856 -42 45 -4162 -4164 0
856 42 45 4162 -4164 0
856 -42 -45 -4162 4164 0
856 42 -45 4162 4164 0
856 346 -398 -441 -1148 0
856 346 -398 441 1148 0
856 -346 398 -441 -1148 0
856 -346 398 441 1148 0
856 -346 -398 441 -1148 0
856 346 398 441 -1148 0
856 -346 -398 -441 1148 0
856 346 398 -441 1148 0
856 -79 -91 4111 -4113 0
856 -79 91 4111 4113 0
856 79 -91 -4111 -4113 0
856 79 91 -4111 4113 0
856 -79 91 -4111 -4113 0
856 79 91 4111 -4113 0
856 -79 -91 -4111 4113 0
856 79 -91 4111 4113 0
856 -66 -69 4102 -4104 0
856 -66 69 4102 4104 0
856 66 -69 -4102 -4104 0
856 66 69 -4102 4104 0
856 -66 69 -4102 -4104 0
856 66 69 4102 -4104 0
856 -66 -69 -4102 4104 0
856 66 -69 4102 4104 0
856 -34 -36 4158 -4160 0
856 -34 36 4158 4160 0
856 34 -36 -4158 -4160 0
856 34 36 -4158 4160 0
856 -34 36 -4158 -4160 0
856 34 36 4158 -4160 0
856 -34 -36 -4158 4160 0
856 34 -36 4158 4160 0
856 -51 -56 4097 -4099 0
856 -51 56 4097 4099 0
856 51 -56 -4097 -4099 0
856 51 56 -4097 4099 0
856 -51 56 -4097 -4099 0
856 51 56 4097 -4099 0
856 -51 -56 -4097 4099 0
856 51 -56 4097 4099 0
856 -49 -50 4095 -4097 0
856 -49 50 4095 4097 0
856 49 -50 -4095 -4097 0
856 49 50 -4095 4097 0
856 -49 50 -4095 -4097 0
856 49 50 4095 -4097 0
856 -49 -50 -4095 4097 0
856 49 -50 4095 4097 0
856 -480 -527 2078 -2080 0
856 -480 527 2078 2080 0
856 480 -527 -2078 -2080 0
856 480 527 -2078 2080 0
856 -480 527 -2078 -2080 0
856 480 527 2078 -2080 0
856 -480 -527 -2078 2080 0
856 480 -527 2078 2080 0
856 378 -424 -476 -2051 0
856 378 -424 476 2051 0
856 -378 424 -476 -2051 0
856 -378 424 476 2051 0
856 -378 -424 476 -2051 0
856 378 424 476 -2051 0
856 -378 -424 -476 2051 0
856 378 424 -476 2051 0
856 -63 -65 4100 -4102 0
856 -63 65 4100 4102 0
856 63 -65 -4100 -4102 0
856 63 65 -4100 4102 0
856 -63 65 -4100 -4102 0
856 63 65 4100 -4102 0
856 -63 -65 -4100 4102 0
856 63 -65 4100 4102 0
856 -126 -127 4130 -4132 0
856 -126 127 4130 4132 0
856 126 -127 -4130 -4132 0
856 126 127 -4130 4132 0
856 -126 127 -4130 -4132 0
856 126 127 4130 -4132 0
856 -126 -127 -4130 4132 0
856 126 -127 4130 4132 0
856 -72 -73 4105 -4107 0
856 -72 73 4105 4107 0
856 72 -73 -4105 -4107 0
856 72 73 -4105 4107 0
856 -72 73 -4105 -4107 0
856 72 73 4105 -4107 0
856 -72 -73 -4105 4107 0
856 72 -73 4105 4107 0
856 -573 -652 2052 -2054 0
856 -573 652 2052 2054 0
856 573 -652 -2052 -2054 0
856 573 652 -2052 2054 0
856 -573 652 -2052 -2054 0
856 573 652 2052 -2054 0
856 -573 -652 -2052 2054 0
856 573 -652 2052 2054 0
856 -77 -78 4109 -4111 0
856 -77 78 4109 4111 0
856 77 -78 -4109 -4111 0
856 77 78 -4109 4111 0
856 -77 78 -4109 -4111 0
856 77 78 4109 -4111 0
856 -77 -78 -4109 4111 0
856 77 -78 4109 4111 0
856 -74 -76 4107 -4109 0
856 -74 76 4107 4109 0
856 74 -76 -4107 -4109 0
856 74 76 -4107 4109 0
856 -74 76 -4107 -4109 0
856 74 76 4107 -4109 0
856 -74 -76 -4107 4109 0
856 74 -76 4107 4109 0
856 -445 -446 5035 -5037 0
856 -445 446 5035 5037 0
856 445 -446 -5035 -5037 0
856 445 446 -5035 5037 0
856 -445 446 -5035 -5037 0
856 445 446 5035 -5037 0
856 -445 -446 -5035 5037 0
856 445 -446 5035 5037 0
856 -99 -101 4119 -4121 0
856 -99 101 4119 4121 0
856 99 -101 -4119 -4121 0
856 99 101 -4119 4121 0
856 -99 101 -4119 -4121 0
856 99 101 4119 -4121 0
856 -99 -101 -4119 4121 0
856 99 -101 4119 4121 0
856 -29 -30 4153 -4155 0
856 -29 30 4153 4155 0
856 29 -30 -4153 -4155 0
856 29 30 -4153 4155 0
856 -29 30 -4153 -4155 0
856 29 30 4153 -4155 0
856 -29 -30 -4153 4155 0
856 29 -30 4153 4155 0
856 -479 -526 2071 -2073 0
856 -479 526 2071 2073 0
856 479 -526 -2071 -2073 0
856 479 526 -2071 2073 0
856 -479 526 -2071 -2073 0
856 479 526 2071 -2073 0
856 -479 -526 -2071 2073 0
856 479 -526 2071 2073 0
856 -93 -94 4114 -4116 0
856 -93 94 4114 4116 0
856 93 -94 -4114 -4116 0
856 93 94 -4114 4116 0
856 -93 94 -4114 -4116 0
856 93 94 4114 -4116 0
856 -93 -94 -4114 4116 0
856 93 -94 4114 4116 0
856 379 -425 -477 -2058 0
856 379 -425 477 2058 0
856 -379 425 -477 -2058 0
856 -379 425 477 2058 0
856 -379 -425 477 -2058 0
856 379 425 477 -2058 0
856 -379 -425 -477 2058 0
856 379 425 -477 2058 0
856 -13 -15 4147 -4149 0
856 -13 15 4147 4149 0
856 13 -15 -4147 -4149 0
856 13 15 -4147 4149 0
856 -13 15 -4147 -4149 0
856 13 15 4147 -4149 0
856 -13 -15 -4147 4149 0
856 13 -15 4147 4149 0
856 -97 -98 4117 -4119 0
856 -97 98 4117 4119 0
856 97 -98 -4117 -4119 0
856 97 98 -4117 4119 0
856 -97 98 -4117 -4119 0
856 97 98 4117 -4119 0
856 -97 -98 -4117 4119 0
856 97 -98 4117 4119 0
856 -11 -12 4145 -4147 0
856 -11 12 4145 4147 0
856 11 -12 -4145 -4147 0
856 11 12 -4145 4147 0
856 -11 12 -4145 -4147 0
856 11 12 4145 -4147 0
856 -11 -12 -4145 4147 0
856 11 -12 4145 4147 0
856 -524 -574 2058 -2060 0
856 -524 574 2058 2060 0
856 524 -574 -2058 -2060 0
856 524 574 -2058 2060 0
856 -524 574 -2058 -2060 0
856 524 574 2058 -2060 0
856 -524 -574 -2058 2060 0
856 524 -574 2058 2060 0
856 -4 -6 4141 -4143 0
856 -4 6 4141 4143 0
856 4 -6 -4141 -4143 0
856 4 6 -4141 4143 0
856 -4 6 -4141 -4143 0
856 4 6 4141 -4143 0
856 -4 -6 -4141 4143 0
856 4 -6 4141 4143 0
856 -105 -106 4123 -4125 0
856 -105 106 4123 4125 0
856 105 -106 -4123 -4125 0
856 105 106 -4123 4125 0
856 -105 106 -4123 -4125 0
856 105 106 4123 -4125 0
856 -105 -106 -4123 4125 0
856 105 -106 4123 4125 0
856 -147 -149 4135 -4137 0
856 -147 149 4135 4137 0
856 147 -149 -4135 -4137 0
856 147 149 -4135 4137 0
856 -147 149 -4135 -4137 0
856 147 149 4135 -4137 0
856 -147 -149 -4135 4137 0
856 147 -149 4135 4137 0
856 -575 -654 2066 -2068 0
856 -575 654 2066 2068 0
856 575 -654 -2066 -2068 0
856 575 654 -2066 2068 0
856 -575 654 -2066 -2068 0
856 575 654 2066 -2068 0
856 -575 -654 -2066 2068 0
856 575 -654 2066 2068 0
856 -103 -104 4121 -4123 0
856 -103 104 4121 4123 0
856 103 -104 -4121 -4123 0
856 103 104 -4121 4123 0
856 -103 104 -4121 -4123 0
856 103 104 4121 -4123 0
856 -103 -104 -4121 4123 0
856 103 -104 4121 4123 0
856 -119 -121 4128 -4130 0
856 -119 121 4128 4130 0
856 119 -121 -4128 -4130 0
856 119 121 -4128 4130 0
856 -119 121 -4128 -4130 0
856 119 121 4128 -4130 0
856 -119 -121 -4128 4130 0
856 119 -121 4128 4130 0
856 -114 -117 4126 -4128 0
856 -114 117 4126 4128 0
856 114 -117 -4126 -4128 0
856 114 117 -4126 4128 0
856 -114 117 -4126 -4128 0
856 114 117 4126 -4128 0
856 -114 -117 -4126 4128 0
856 114 -117 4126 4128 0
856 58 -70 -73 -2422 0
856 58 -70 73 2422 0
856 -58 70 -73 -2422 0
856 -58 70 73 2422 0
856 -58 -70 73 -2422 0
856 58 70 73 -2422 0
856 -58 -70 -73 2422 0
856 58 70 -73 2422 0
856 -100 -263 2514 -2516 0
856 -100 263 2514 2516 0
856 100 -263 -2514 -2516 0
856 100 263 -2514 2516 0
856 -100 263 -2514 -2516 0
856 100 263 2514 -2516 0
856 -100 -263 -2514 2516 0
856 100 -263 2514 2516 0
856 -141 -146 4133 -4135 0
856 -141 146 4133 4135 0
856 141 -146 -4133 -4135 0
856 141 146 -4133 4135 0
856 -141 146 -4133 -4135 0
856 141 146 4133 -4135 0
856 -141 -146 -4133 4135 0
856 141 -146 4133 4135 0
856 -478 -525 2064 -2066 0
856 -478 525 2064 2066 0
856 478 -525 -2064 -2066 0
856 478 525 -2064 2066 0
856 -478 525 -2064 -2066 0
856 478 525 2064 -2066 0
856 -478 -525 -2064 2066 0
856 478 -525 2064 2066 0
856 -24 -27 4151 -4153 0
856 -24 27 4151 4153 0
856 24 -27 -4151 -4153 0
856 24 27 -4151 4153 0
856 -24 27 -4151 -4153 0
856 24 27 4151 -4153 0
856 -24 -27 -4151 4153 0
856 24 -27 4151 4153 0
856 -7 -10 4143 -4145 0
856 -7 10 4143 4145 0
856 7 -10 -4143 -4145 0
856 7 10 -4143 4145 0
856 -7 10 -4143 -4145 0
856 7 10 4143 -4145 0
856 -7 -10 -4143 4145 0
856 7 -10 4143 4145 0
856 -16 -19 4149 -4151 0
856 -16 19 4149 4151 0
856 16 -19 -4149 -4151 0
856 16 19 -4149 4151 0
856 -16 19 -4149 -4151 0
856 16 19 4149 -4151 0
856 -16 -19 -4149 4151 0
856 16 -19 4149 4151 0
856 -93 -266 2465 -2467 0
856 -93 266 2465 2467 0
856 93 -266 -2465 -2467 0
856 93 266 -2465 2467 0
856 -93 266 -2465 -2467 0
856 93 266 2465 -2467 0
856 -93 -266 -2465 2467 0
856 93 -266 2465 2467 0
856 -561 -562 5443 -5445 0
856 -561 562 5443 5445 0
856 561 -562 -5443 -5445 0
856 561 562 -5443 5445 0
856 -561 562 -5443 -5445 0
856 561 562 5443 -5445 0
856 -561 -562 -5443 5445 0
856 561 -562 5443 5445 0
856 -31 -32 4155 -4157 0
856 -31 32 4155 4157 0
856 31 -32 -4155 -4157 0
856 31 32 -4155 4157 0
856 -31 32 -4155 -4157 0
856 31 32 4155 -4157 0
856 -31 -32 -4155 4157 0
856 31 -32 4155 4157 0
856 -576 -655 2073 -2075 0
856 -576 655 2073 2075 0
856 576 -655 -2073 -2075 0
856 576 655 -2073 2075 0
856 -576 655 -2073 -2075 0
856 576 655 2073 -2075 0
856 -576 -655 -2073 2075 0
856 576 -655 2073 2075 0
856 -22 -23 4222 -4224 0
856 -22 23 4222 4224 0
856 22 -23 -4222 -4224 0
856 22 23 -4222 4224 0
856 -22 23 -4222 -4224 0
856 22 23 4222 -4224 0
856 -22 -23 -4222 4224 0
856 22 -23 4222 4224 0
856 -452 -453 5057 -5059 0
856 -452 453 5057 5059 0
856 452 -453 -5057 -5059 0
856 452 453 -5057 5059 0
856 -452 453 -5057 -5059 0
856 452 453 5057 -5059 0
856 -452 -453 -5057 5059 0
856 452 -453 5057 5059 0
856 -457 -509 1259 -1261 0
856 -457 509 1259 1261 0
856 457 -509 -1259 -1261 0
856 457 509 -1259 1261 0
856 -457 509 -1259 -1261 0
856 457 509 1259 -1261 0
856 -457 -509 -1259 1261 0
856 457 -509 1259 1261 0
856 -359 -362 5309 -5311 0
856 -359 362 5309 5311 0
856 359 -362 -5309 -5311 0
856 359 362 -5309 5311 0
856 -359 362 -5309 -5311 0
856 359 362 5309 -5311 0
856 -359 -362 -5309 5311 0
856 359 -362 5309 5311 0
856 -459 -461 5061 -5063 0
856 -459 461 5061 5063 0
856 459 -461 -5061 -5063 0
856 459 461 -5061 5063 0
856 -459 461 -5061 -5063 0
856 459 461 5061 -5063 0
856 -459 -461 -5061 5063 0
856 459 -461 5061 5063 0
856 -358 -359 4578 -4580 0
856 -358 359 4578 4580 0
856 358 -359 -4578 -4580 0
856 358 359 -4578 4580 0
856 -358 359 -4578 -4580 0
856 358 359 4578 -4580 0
856 -358 -359 -4578 4580 0
856 358 -359 4578 4580 0
856 -127 -132 4198 -4200 0
856 -127 132 4198 4200 0
856 127 -132 -4198 -4200 0
856 127 132 -4198 4200 0
856 -127 132 -4198 -4200 0
856 127 132 4198 -4200 0
856 -127 -132 -4198 4200 0
856 127 -132 4198 4200 0
856 -68 -71 4176 -4178 0
856 -68 71 4176 4178 0
856 68 -71 -4176 -4178 0
856 68 71 -4176 4178 0
856 -68 71 -4176 -4178 0
856 68 71 4176 -4178 0
856 -68 -71 -4176 4178 0
856 68 -71 4176 4178 0
856 -38 -41 4160 -4162 0
856 -38 41 4160 4162 0
856 38 -41 -4160 -4162 0
856 38 41 -4160 4162 0
856 -38 41 -4160 -4162 0
856 38 41 4160 -4162 0
856 -38 -41 -4160 4162 0
856 38 -41 4160 4162 0
856 -577 -656 2080 -2082 0
856 -577 656 2080 2082 0
856 577 -656 -2080 -2082 0
856 577 656 -2080 2082 0
856 -577 656 -2080 -2082 0
856 577 656 2080 -2082 0
856 -577 -656 -2080 2082 0
856 577 -656 2080 2082 0
856 -48 -49 4165 -4167 0
856 -48 49 4165 4167 0
856 48 -49 -4165 -4167 0
856 48 49 -4165 4167 0
856 -48 49 -4165 -4167 0
856 48 49 4165 -4167 0
856 -48 -49 -4165 4167 0
856 48 -49 4165 4167 0
856 -58 -59 4170 -4172 0
856 -58 59 4170 4172 0
856 58 -59 -4170 -4172 0
856 58 59 -4170 4172 0
856 -58 59 -4170 -4172 0
856 58 59 4170 -4172 0
856 -58 -59 -4170 4172 0
856 58 -59 4170 4172 0
856 -65 -67 4174 -4176 0
856 -65 67 4174 4176 0
856 65 -67 -4174 -4176 0
856 65 67 -4174 4176 0
856 -65 67 -4174 -4176 0
856 65 67 4174 -4176 0
856 -65 -67 -4174 4176 0
856 65 -67 4174 4176 0
856 -85 -87 4180 -4182 0
856 -85 87 4180 4182 0
856 85 -87 -4180 -4182 0
856 85 87 -4180 4182 0
856 -85 87 -4180 -4182 0
856 85 87 4180 -4182 0
856 -85 -87 -4180 4182 0
856 85 -87 4180 4182 0
856 -96 -98 4186 -4188 0
856 -96 98 4186 4188 0
856 96 -98 -4186 -4188 0
856 96 98 -4186 4188 0
856 -96 98 -4186 -4188 0
856 96 98 4186 -4188 0
856 -96 -98 -4186 4188 0
856 96 -98 4186 4188 0
856 -92 -95 4184 -4186 0
856 -92 95 4184 4186 0
856 92 -95 -4184 -4186 0
856 92 95 -4184 4186 0
856 -92 95 -4184 -4186 0
856 92 95 4184 -4186 0
856 -92 -95 -4184 4186 0
856 92 -95 4184 4186 0
856 -123 -125 4196 -4198 0
856 -123 125 4196 4198 0
856 123 -125 -4196 -4198 0
856 123 125 -4196 4198 0
856 -123 125 -4196 -4198 0
856 123 125 4196 -4198 0
856 -123 -125 -4196 4198 0
856 123 -125 4196 4198 0
856 -105 -107 4190 -4192 0
856 -105 107 4190 4192 0
856 105 -107 -4190 -4192 0
856 105 107 -4190 4192 0
856 -105 107 -4190 -4192 0
856 105 107 4190 -4192 0
856 -105 -107 -4190 4192 0
856 105 -107 4190 4192 0
856 -111 -114 4192 -4194 0
856 -111 114 4192 4194 0
856 111 -114 -4192 -4194 0
856 111 114 -4192 4194 0
856 -111 114 -4192 -4194 0
856 111 114 4192 -4194 0
856 -111 -114 -4192 4194 0
856 111 -114 4192 4194 0
856 -116 -122 4194 -4196 0
856 -116 122 4194 4196 0
856 116 -122 -4194 -4196 0
856 116 122 -4194 4196 0
856 -116 122 -4194 -4196 0
856 116 122 4194 -4196 0
856 -116 -122 -4194 4196 0
856 116 -122 4194 4196 0
856 -365 -366 4582 -4584 0
856 -365 366 4582 4584 0
856 365 -366 -4582 -4584 0
856 365 366 -4582 4584 0
856 -365 366 -4582 -4584 0
856 365 366 4582 -4584 0
856 -365 -366 -4582 4584 0
856 365 -366 4582 4584 0
856 -18 -19 4219 -4221 0
856 -18 19 4219 4221 0
856 18 -19 -4219 -4221 0
856 18 19 -4219 4221 0
856 -18 19 -4219 -4221 0
856 18 19 4219 -4221 0
856 -18 -19 -4219 4221 0
856 18 -19 4219 4221 0
856 -145 -146 4207 -4209 0
856 -145 146 4207 4209 0
856 145 -146 -4207 -4209 0
856 145 146 -4207 4209 0
856 -145 146 -4207 -4209 0
856 145 146 4207 -4209 0
856 -145 -146 -4207 4209 0
856 145 -146 4207 4209 0
856 -45 -46 4092 -4094 0
856 -45 46 4092 4094 0
856 45 -46 -4092 -4094 0
856 45 46 -4092 4094 0
856 -45 46 -4092 -4094 0
856 45 46 4092 -4094 0
856 -45 -46 -4092 4094 0
856 45 -46 4092 4094 0
856 -30 -42 4090 -4092 0
856 -30 42 4090 4092 0
856 30 -42 -4090 -4092 0
856 30 42 -4090 4092 0
856 -30 42 -4090 -4092 0
856 30 42 4090 -4092 0
856 -30 -42 -4090 4092 0
856 30 -42 4090 4092 0
856 -136 -137 4202 -4204 0
856 -136 137 4202 4204 0
856 136 -137 -4202 -4204 0
856 136 137 -4202 4204 0
856 -136 137 -4202 -4204 0
856 136 137 4202 -4204 0
856 -136 -137 -4202 4204 0
856 136 -137 4202 4204 0
856 -27 -29 4088 -4090 0
856 -27 29 4088 4090 0
856 27 -29 -4088 -4090 0
856 27 29 -4088 4090 0
856 -27 29 -4088 -4090 0
856 27 29 4088 -4090 0
856 -27 -29 -4088 4090 0
856 27 -29 4088 4090 0
856 -143 -144 4205 -4207 0
856 -143 144 4205 4207 0
856 143 -144 -4205 -4207 0
856 143 144 -4205 4207 0
856 -143 144 -4205 -4207 0
856 143 144 4205 -4207 0
856 -143 -144 -4205 4207 0
856 143 -144 4205 4207 0
856 -530 -580 2100 -2102 0
856 -530 580 2100 2102 0
856 530 -580 -2100 -2102 0
856 530 580 -2100 2102 0
856 -530 580 -2100 -2102 0
856 530 580 2100 -2102 0
856 -530 -580 -2100 2102 0
856 530 -580 2100 2102 0
856 -20 -22 4084 -4086 0
856 -20 22 4084 4086 0
856 20 -22 -4084 -4086 0
856 20 22 -4084 4086 0
856 -20 22 -4084 -4086 0
856 20 22 4084 -4086 0
856 -20 -22 -4084 4086 0
856 20 -22 4084 4086 0
856 377 -423 -475 -2044 0
856 377 -423 475 2044 0
856 -377 423 -475 -2044 0
856 -377 423 475 2044 0
856 -377 -423 475 -2044 0
856 377 423 475 -2044 0
856 -377 -423 -475 2044 0
856 377 423 -475 2044 0
856 -149 -251 4210 -4212 0
856 -149 251 4210 4212 0
856 149 -251 -4210 -4212 0
856 149 251 -4210 4212 0
856 -149 251 -4210 -4212 0
856 149 251 4210 -4212 0
856 -149 -251 -4210 4212 0
856 149 -251 4210 4212 0
856 -14 -17 4217 -4219 0
856 -14 17 4217 4219 0
856 14 -17 -4217 -4219 0
856 14 17 -4217 4219 0
856 -14 17 -4217 -4219 0
856 14 17 4217 -4219 0
856 -14 -17 -4217 4219 0
856 14 -17 4217 4219 0
856 -10 -11 4080 -4082 0
856 -10 11 4080 4082 0
856 10 -11 -4080 -4082 0
856 10 11 -4080 4082 0
856 -10 11 -4080 -4082 0
856 10 11 4080 -4082 0
856 -10 -11 -4080 4082 0
856 10 -11 4080 4082 0
856 -48 -263 2290 -2292 0
856 -48 263 2290 2292 0
856 48 -263 -2290 -2292 0
856 48 263 -2290 2292 0
856 -48 263 -2290 -2292 0
856 48 263 2290 -2292 0
856 -48 -263 -2290 2292 0
856 48 -263 2290 2292 0
856 -87 -99 2506 -2508 0
856 -87 99 2506 2508 0
856 87 -99 -2506 -2508 0
856 87 99 -2506 2508 0
856 -87 99 -2506 -2508 0
856 87 99 2506 -2508 0
856 -87 -99 -2506 2508 0
856 87 -99 2506 2508 0
856 -6 -7 4077 -4079 0
856 -6 7 4077 4079 0
856 6 -7 -4077 -4079 0
856 6 7 -4077 4079 0
856 -6 7 -4077 -4079 0
856 6 7 4077 -4079 0
856 -6 -7 -4077 4079 0
856 6 -7 4077 4079 0
856 -561 -652 2038 -2040 0
856 -561 652 2038 2040 0
856 561 -652 -2038 -2040 0
856 561 652 -2038 2040 0
856 -561 652 -2038 -2040 0
856 561 652 2038 -2040 0
856 -561 -652 -2038 2040 0
856 561 -652 2038 2040 0
856 -468 -469 5048 -5050 0
856 -468 469 5048 5050 0
856 468 -469 -5048 -5050 0
856 468 469 -5048 5050 0
856 -468 469 -5048 -5050 0
856 468 469 5048 -5050 0
856 -468 -469 -5048 5050 0
856 468 -469 5048 5050 0
856 -130 -138 2722 -2724 0
856 -130 138 2722 2724 0
856 130 -138 -2722 -2724 0
856 130 138 -2722 2724 0
856 -130 138 -2722 -2724 0
856 130 138 2722 -2724 0
856 -130 -138 -2722 2724 0
856 130 -138 2722 2724 0
856 -136 -139 4072 -4074 0
856 -136 139 4072 4074 0
856 136 -139 -4072 -4074 0
856 136 139 -4072 4074 0
856 -136 139 -4072 -4074 0
856 136 139 4072 -4074 0
856 -136 -139 -4072 4074 0
856 136 -139 4072 4074 0
856 442 -447 -448 -5054 0
856 442 -447 448 5054 0
856 -442 447 -448 -5054 0
856 -442 447 448 5054 0
856 -442 -447 448 -5054 0
856 442 447 448 -5054 0
856 -442 -447 -448 5054 0
856 442 447 -448 5054 0
856 -80 -88 2512 -2514 0
856 -80 88 2512 2514 0
856 80 -88 -2512 -2514 0
856 80 88 -2512 2514 0
856 -80 88 -2512 -2514 0
856 80 88 2512 -2514 0
856 -80 -88 -2512 2514 0
856 80 -88 2512 2514 0
856 -567 -569 5447 -5449 0
856 -567 569 5447 5449 0
856 567 -569 -5447 -5449 0
856 567 569 -5447 5449 0
856 -567 569 -5447 -5449 0
856 567 569 5447 -5449 0
856 -567 -569 -5447 5449 0
856 567 -569 5447 5449 0
856 -85 -87 4067 -4069 0
856 -85 87 4067 4069 0
856 85 -87 -4067 -4069 0
856 85 87 -4067 4069 0
856 -85 87 -4067 -4069 0
856 85 87 4067 -4069 0
856 -85 -87 -4067 4069 0
856 85 -87 4067 4069 0
856 -571 -660 2108 -2110 0
856 -571 660 2108 2110 0
856 571 -660 -2108 -2110 0
856 571 660 -2108 2110 0
856 -571 660 -2108 -2110 0
856 571 660 2108 -2110 0
856 -571 -660 -2108 2110 0
856 571 -660 2108 2110 0
856 -508 -556 1253 -1255 0
856 -508 556 1253 1255 0
856 508 -556 -1253 -1255 0
856 508 556 -1253 1255 0
856 -508 556 -1253 -1255 0
856 508 556 1253 -1255 0
856 -508 -556 -1253 1255 0
856 508 -556 1253 1255 0
856 -448 -449 5038 -5040 0
856 -448 449 5038 5040 0
856 448 -449 -5038 -5040 0
856 448 449 -5038 5040 0
856 -448 449 -5038 -5040 0
856 448 449 5038 -5040 0
856 -448 -449 -5038 5040 0
856 448 -449 5038 5040 0
856 -81 -83 4064 -4066 0
856 -81 83 4064 4066 0
856 81 -83 -4064 -4066 0
856 81 83 -4064 4066 0
856 -81 83 -4064 -4066 0
856 81 83 4064 -4066 0
856 -81 -83 -4064 4066 0
856 81 -83 4064 4066 0
856 -570 -651 2031 -2033 0
856 -570 651 2031 2033 0
856 570 -651 -2031 -2033 0
856 570 651 -2031 2033 0
856 -570 651 -2031 -2033 0
856 570 651 2031 -2033 0
856 -570 -651 -2031 2033 0
856 570 -651 2031 2033 0
856 341 -342 -347 -4572 0
856 341 -342 347 4572 0
856 -341 342 -347 -4572 0
856 -341 342 347 4572 0
856 -341 -342 347 -4572 0
856 341 342 347 -4572 0
856 -341 -342 -347 4572 0
856 341 342 -347 4572 0
856 -55 -57 4231 -4233 0
856 -55 57 4231 4233 0
856 55 -57 -4231 -4233 0
856 55 57 -4231 4233 0
856 -55 57 -4231 -4233 0
856 55 57 4231 -4233 0
856 -55 -57 -4231 4233 0
856 55 -57 4231 4233 0
856 -34 -35 4061 -4063 0
856 -34 35 4061 4063 0
856 34 -35 -4061 -4063 0
856 34 35 -4061 4063 0
856 -34 35 -4061 -4063 0
856 34 35 4061 -4063 0
856 -34 -35 -4061 4063 0
856 34 -35 4061 4063 0
856 -42 -43 4226 -4228 0
856 -42 43 4226 4228 0
856 42 -43 -4226 -4228 0
856 42 43 -4226 4228 0
856 -42 43 -4226 -4228 0
856 42 43 4226 -4228 0
856 -42 -43 -4226 4228 0
856 42 -43 4226 4228 0
856 387 -433 -485 -2114 0
856 387 -433 485 2114 0
856 -387 433 -485 -2114 0
856 -387 433 485 2114 0
856 -387 -433 485 -2114 0
856 387 433 485 -2114 0
856 -387 -433 -485 2114 0
856 387 433 -485 2114 0
856 -463 -520 2029 -2031 0
856 -463 520 2029 2031 0
856 463 -520 -2029 -2031 0
856 463 520 -2029 2031 0
856 -463 520 -2029 -2031 0
856 463 520 2029 -2031 0
856 -463 -520 -2029 2031 0
856 463 -520 2029 2031 0
856 -137 -139 4056 -4058 0
856 -137 139 4056 4058 0
856 137 -139 -4056 -4058 0
856 137 139 -4056 4058 0
856 -137 139 -4056 -4058 0
856 137 139 4056 -4058 0
856 -137 -139 -4056 4058 0
856 137 -139 4056 4058 0
856 -24 -27 4224 -4226 0
856 -24 27 4224 4226 0
856 24 -27 -4224 -4226 0
856 24 27 -4224 4226 0
856 -24 27 -4224 -4226 0
856 24 27 4224 -4226 0
856 -24 -27 -4224 4226 0
856 24 -27 4224 4226 0
856 -47 -54 4229 -4231 0
856 -47 54 4229 4231 0
856 47 -54 -4229 -4231 0
856 47 54 -4229 4231 0
856 -47 54 -4229 -4231 0
856 47 54 4229 -4231 0
856 -47 -54 -4229 4231 0
856 47 -54 4229 4231 0
856 -93 -94 4241 -4243 0
856 -93 94 4241 4243 0
856 93 -94 -4241 -4243 0
856 93 94 -4241 4243 0
856 -93 94 -4241 -4243 0
856 93 94 4241 -4243 0
856 -93 -94 -4241 4243 0
856 93 -94 4241 4243 0
856 -132 -133 4052 -4054 0
856 -132 133 4052 4054 0
856 132 -133 -4052 -4054 0
856 132 133 -4052 4054 0
856 -132 133 -4052 -4054 0
856 132 133 4052 -4054 0
856 -132 -133 -4052 4054 0
856 132 -133 4052 4054 0
856 -64 -66 4235 -4237 0
856 -64 66 4235 4237 0
856 64 -66 -4235 -4237 0
856 64 66 -4235 4237 0
856 -64 66 -4235 -4237 0
856 64 66 4235 -4237 0
856 -64 -66 -4235 4237 0
856 64 -66 4235 4237 0
856 -76 -78 4239 -4241 0
856 -76 78 4239 4241 0
856 76 -78 -4239 -4241 0
856 76 78 -4239 4241 0
856 -76 78 -4239 -4241 0
856 76 78 4239 -4241 0
856 -76 -78 -4239 4241 0
856 76 -78 4239 4241 0
856 -447 -448 5017 -5019 0
856 -447 448 5017 5019 0
856 447 -448 -5017 -5019 0
856 447 448 -5017 5019 0
856 -447 448 -5017 -5019 0
856 447 448 5017 -5019 0
856 -447 -448 -5017 5019 0
856 447 -448 5017 5019 0
856 -81 -85 4048 -4050 0
856 -81 85 4048 4050 0
856 81 -85 -4048 -4050 0
856 81 85 -4048 4050 0
856 -81 85 -4048 -4050 0
856 81 85 4048 -4050 0
856 -81 -85 -4048 4050 0
856 81 -85 4048 4050 0
856 -519 -569 2023 -2025 0
856 -519 569 2023 2025 0
856 519 -569 -2023 -2025 0
856 519 569 -2023 2025 0
856 -519 569 -2023 -2025 0
856 519 569 2023 -2025 0
856 -519 -569 -2023 2025 0
856 519 -569 2023 2025 0
856 -113 -115 4250 -4252 0
856 -113 115 4250 4252 0
856 113 -115 -4250 -4252 0
856 113 115 -4250 4252 0
856 -113 115 -4250 -4252 0
856 113 115 4250 -4252 0
856 -113 -115 -4250 4252 0
856 113 -115 4250 4252 0
856 -102 -103 4245 -4247 0
856 -102 103 4245 4247 0
856 102 -103 -4245 -4247 0
856 102 103 -4245 4247 0
856 -102 103 -4245 -4247 0
856 102 103 4245 -4247 0
856 -102 -103 -4245 4247 0
856 102 -103 4245 4247 0
856 31 -32 -33 -4046 0
856 31 -32 33 4046 0
856 -31 32 -33 -4046 0
856 -31 32 33 4046 0
856 -31 -32 33 -4046 0
856 31 32 33 -4046 0
856 -31 -32 -33 4046 0
856 31 32 -33 4046 0
856 -109 -112 4248 -4250 0
856 -109 112 4248 4250 0
856 109 -112 -4248 -4250 0
856 109 112 -4248 4250 0
856 -109 112 -4248 -4250 0
856 109 112 4248 -4250 0
856 -109 -112 -4248 4250 0
856 109 -112 4248 4250 0
856 364 -420 -462 -2023 0
856 364 -420 462 2023 0
856 -364 420 -462 -2023 0
856 -364 420 462 2023 0
856 -364 -420 462 -2023 0
856 364 420 462 -2023 0
856 -364 -420 -462 2023 0
856 364 420 -462 2023 0
856 351 -403 -456 -1253 0
856 351 -403 456 1253 0
856 -351 403 -456 -1253 0
856 -351 403 456 1253 0
856 -351 -403 456 -1253 0
856 351 403 456 -1253 0
856 -351 -403 -456 1253 0
856 351 403 -456 1253 0
856 -127 -129 4040 -4042 0
856 -127 129 4040 4042 0
856 127 -129 -4040 -4042 0
856 127 129 -4040 4042 0
856 -127 129 -4040 -4042 0
856 127 129 4040 -4042 0
856 -127 -129 -4040 4042 0
856 127 -129 4040 4042 0
856 -44 -45 4286 -4288 0
856 -44 45 4286 4288 0
856 44 -45 -4286 -4288 0
856 44 45 -4286 4288 0
856 -44 45 -4286 -4288 0
856 44 45 4286 -4288 0
856 -44 -45 -4286 4288 0
856 44 -45 4286 4288 0
856 -121 -122 4253 -4255 0
856 -121 122 4253 4255 0
856 121 -122 -4253 -4255 0
856 121 122 -4253 4255 0
856 -121 122 -4253 -4255 0
856 121 122 4253 -4255 0
856 -121 -122 -4253 4255 0
856 121 -122 4253 4255 0
856 -129 -137 2715 -2717 0
856 -129 137 2715 2717 0
856 129 -137 -2715 -2717 0
856 129 137 -2715 2717 0
856 -129 137 -2715 -2717 0
856 129 137 2715 -2717 0
856 -129 -137 -2715 2717 0
856 129 -137 2715 2717 0
856 -79 -122 4035 -4037 0
856 -79 122 4035 4037 0
856 79 -122 -4035 -4037 0
856 79 122 -4035 4037 0
856 -79 122 -4035 -4037 0
856 79 122 4035 -4037 0
856 -79 -122 -4035 4037 0
856 79 -122 4035 4037 0
856 389 -435 -487 -2128 0
856 389 -435 487 2128 0
856 -389 435 -487 -2128 0
856 -389 435 487 2128 0
856 -389 -435 487 -2128 0
856 389 435 487 -2128 0
856 -389 -435 -487 2128 0
856 389 435 -487 2128 0
856 -352 -354 4574 -4576 0
856 -352 354 4574 4576 0
856 352 -354 -4574 -4576 0
856 352 354 -4574 4576 0
856 -352 354 -4574 -4576 0
856 352 354 4574 -4576 0
856 -352 -354 -4574 4576 0
856 352 -354 4574 4576 0
856 -28 -71 4031 -4033 0
856 -28 71 4031 4033 0
856 28 -71 -4031 -4033 0
856 28 71 -4031 4033 0
856 -28 71 -4031 -4033 0
856 28 71 4031 -4033 0
856 -28 -71 -4031 4033 0
856 28 -71 4031 4033 0
856 -128 -141 4256 -4258 0
856 -128 141 4256 4258 0
856 128 -141 -4256 -4258 0
856 128 141 -4256 4258 0
856 -128 141 -4256 -4258 0
856 128 141 4256 -4258 0
856 -128 -141 -4256 4258 0
856 128 -141 4256 4258 0
856 -534 -584 2128 -2130 0
856 -534 584 2128 2130 0
856 534 -584 -2128 -2130 0
856 534 584 -2128 2130 0
856 -534 584 -2128 -2130 0
856 534 584 2128 -2130 0
856 -534 -584 -2128 2130 0
856 534 -584 2128 2130 0
856 -148 -281 4260 -4262 0
856 -148 281 4260 4262 0
856 148 -281 -4260 -4262 0
856 148 281 -4260 4262 0
856 -148 281 -4260 -4262 0
856 148 281 4260 -4262 0
856 -148 -281 -4260 4262 0
856 148 -281 4260 4262 0
856 -23 -24 4029 -4031 0
856 -23 24 4029 4031 0
856 23 -24 -4029 -4031 0
856 23 24 -4029 4031 0
856 -23 24 -4029 -4031 0
856 23 24 4029 -4031 0
856 -23 -24 -4029 4031 0
856 23 -24 4029 4031 0
856 -22 -24 4274 -4276 0
856 -22 24 4274 4276 0
856 22 -24 -4274 -4276 0
856 22 24 -4274 4276 0
856 -22 24 -4274 -4276 0
856 22 24 4274 -4276 0
856 -22 -24 -4274 4276 0
856 22 -24 4274 4276 0
856 -10 -12 4267 -4269 0
856 -10 12 4267 4269 0
856 10 -12 -4267 -4269 0
856 10 12 -4267 4269 0
856 -10 12 -4267 -4269 0
856 10 12 4267 -4269 0
856 -10 -12 -4267 4269 0
856 10 -12 4267 4269 0
856 -20 -21 4272 -4274 0
856 -20 21 4272 4274 0
856 20 -21 -4272 -4274 0
856 20 21 -4272 4274 0
856 -20 21 -4272 -4274 0
856 20 21 4272 -4274 0
856 -20 -21 -4272 4274 0
856 20 -21 4272 4274 0
856 -118 -119 4024 -4026 0
856 -118 119 4024 4026 0
856 118 -119 -4024 -4026 0
856 118 119 -4024 4026 0
856 -118 119 -4024 -4026 0
856 118 119 4024 -4026 0
856 -118 -119 -4024 4026 0
856 118 -119 4024 4026 0
856 -13 -18 4269 -4271 0
856 -13 18 4269 4271 0
856 13 -18 -4269 -4271 0
856 13 18 -4269 4271 0
856 -13 18 -4269 -4271 0
856 13 18 4269 -4271 0
856 -13 -18 -4269 4271 0
856 13 -18 4269 4271 0
856 -27 -31 4278 -4280 0
856 -27 31 4278 4280 0
856 27 -31 -4278 -4280 0
856 27 31 -4278 4280 0
856 -27 31 -4278 -4280 0
856 27 31 4278 -4280 0
856 -27 -31 -4278 4280 0
856 27 -31 4278 4280 0
856 -585 -656 2136 -2138 0
856 -585 656 2136 2138 0
856 585 -656 -2136 -2138 0
856 585 656 -2136 2138 0
856 -585 656 -2136 -2138 0
856 585 656 2136 -2138 0
856 -585 -656 -2136 2138 0
856 585 -656 2136 2138 0
856 -67 -69 4020 -4022 0
856 -67 69 4020 4022 0
856 67 -69 -4020 -4022 0
856 67 69 -4020 4022 0
856 -67 69 -4020 -4022 0
856 67 69 4020 -4022 0
856 -67 -69 -4020 4022 0
856 67 -69 4020 4022 0
856 -567 -658 2010 -2012 0
856 -567 658 2010 2012 0
856 567 -658 -2010 -2012 0
856 567 658 -2010 2012 0
856 -567 658 -2010 -2012 0
856 567 658 2010 -2012 0
856 -567 -658 -2010 2012 0
856 567 -658 2010 2012 0
856 -36 -37 4283 -4285 0
856 -36 37 4283 4285 0
856 36 -37 -4283 -4285 0
856 36 37 -4283 4285 0
856 -36 37 -4283 -4285 0
856 36 37 4283 -4285 0
856 -36 -37 -4283 4285 0
856 36 -37 4283 4285 0
856 -86 -98 2499 -2501 0
856 -86 98 2499 2501 0
856 86 -98 -2499 -2501 0
856 86 98 -2499 2501 0
856 -86 98 -2499 -2501 0
856 86 98 2499 -2501 0
856 -86 -98 -2499 2501 0
856 86 -98 2499 2501 0
856 -17 -18 4016 -4018 0
856 -17 18 4016 4018 0
856 17 -18 -4016 -4018 0
856 17 18 -4016 4018 0
856 -17 18 -4016 -4018 0
856 17 18 4016 -4018 0
856 -17 -18 -4016 4018 0
856 17 -18 4016 4018 0
856 362 -418 -470 -2009 0
856 362 -418 470 2009 0
856 -362 418 -470 -2009 0
856 -362 418 470 2009 0
856 -362 -418 470 -2009 0
856 362 418 470 -2009 0
856 -362 -418 -470 2009 0
856 362 418 -470 2009 0
856 -454 -455 5024 -5026 0
856 -454 455 5024 5026 0
856 454 -455 -5024 -5026 0
856 454 455 -5024 5026 0
856 -454 455 -5024 -5026 0
856 454 455 5024 -5026 0
856 -454 -455 -5024 5026 0
856 454 -455 5024 5026 0
856 381 -437 -489 -2142 0
856 381 -437 489 2142 0
856 -381 437 -489 -2142 0
856 -381 437 489 2142 0
856 -381 -437 489 -2142 0
856 381 437 489 -2142 0
856 -381 -437 -489 2142 0
856 381 437 -489 2142 0
856 -450 -451 5020 -5022 0
856 -450 451 5020 5022 0
856 450 -451 -5020 -5022 0
856 450 451 -5020 5022 0
856 -450 451 -5020 -5022 0
856 450 451 5020 -5022 0
856 -450 -451 -5020 5022 0
856 450 -451 5020 5022 0
856 -407 -409 5004 -5006 0
856 -407 409 5004 5006 0
856 407 -409 -5004 -5006 0
856 407 409 -5004 5006 0
856 -407 409 -5004 -5006 0
856 407 409 5004 -5006 0
856 -407 -409 -5004 5006 0
856 407 -409 5004 5006 0
856 -112 -115 4008 -4010 0
856 -112 115 4008 4010 0
856 112 -115 -4008 -4010 0
856 112 115 -4008 4010 0
856 -112 115 -4008 -4010 0
856 112 115 4008 -4010 0
856 -112 -115 -4008 4010 0
856 112 -115 4008 4010 0
856 -566 -657 2003 -2005 0
856 -566 657 2003 2005 0
856 566 -657 -2003 -2005 0
856 566 657 -2003 2005 0
856 -566 657 -2003 -2005 0
856 566 657 2003 -2005 0
856 -566 -657 -2003 2005 0
856 566 -657 2003 2005 0
856 55 -64 -78 -2499 0
856 55 -64 78 2499 0
856 -55 64 -78 -2499 0
856 -55 64 78 2499 0
856 -55 -64 78 -2499 0
856 55 64 78 -2499 0
856 -55 -64 -78 2499 0
856 55 64 -78 2499 0
856 -49 -52 4290 -4292 0
856 -49 52 4290 4292 0
856 49 -52 -4290 -4292 0
856 49 52 -4290 4292 0
856 -49 52 -4290 -4292 0
856 49 52 4290 -4292 0
856 -49 -52 -4290 4292 0
856 49 -52 4290 4292 0
856 -17 -62 4003 -4005 0
856 -17 62 4003 4005 0
856 17 -62 -4003 -4005 0
856 17 62 -4003 4005 0
856 -17 62 -4003 -4005 0
856 17 62 4003 -4005 0
856 -17 -62 -4003 4005 0
856 17 -62 4003 4005 0
856 -63 -68 4295 -4297 0
856 -63 68 4295 4297 0
856 63 -68 -4295 -4297 0
856 63 68 -4295 4297 0
856 -63 68 -4295 -4297 0
856 63 68 4295 -4297 0
856 -63 -68 -4295 4297 0
856 63 -68 4295 4297 0
856 -59 -61 4293 -4295 0
856 -59 61 4293 4295 0
856 59 -61 -4293 -4295 0
856 59 61 -4293 4295 0
856 -59 61 -4293 -4295 0
856 59 61 4293 -4295 0
856 -59 -61 -4293 4295 0
856 59 -61 4293 4295 0
856 -471 -523 1357 -1359 0
856 -471 523 1357 1359 0
856 471 -523 -1357 -1359 0
856 471 523 -1357 1359 0
856 -471 523 -1357 -1359 0
856 471 523 1357 -1359 0
856 -471 -523 -1357 1359 0
856 471 -523 1357 1359 0
856 -14 -16 4001 -4003 0
856 -14 16 4001 4003 0
856 14 -16 -4001 -4003 0
856 14 16 -4001 4003 0
856 -14 16 -4001 -4003 0
856 14 16 4001 -4003 0
856 -14 -16 -4001 4003 0
856 14 -16 4001 4003 0
856 -75 -76 4299 -4301 0
856 -75 76 4299 4301 0
856 75 -76 -4299 -4301 0
856 75 76 -4299 4301 0
856 -75 76 -4299 -4301 0
856 75 76 4299 -4301 0
856 -75 -76 -4299 4301 0
856 75 -76 4299 4301 0
856 -537 -587 2149 -2151 0
856 -537 587 2149 2151 0
856 537 -587 -2149 -2151 0
856 537 587 -2149 2151 0
856 -537 587 -2149 -2151 0
856 537 587 2149 -2151 0
856 -537 -587 -2149 2151 0
856 537 -587 2149 2151 0
856 -113 -115 4318 -4320 0
856 -113 115 4318 4320 0
856 113 -115 -4318 -4320 0
856 113 115 -4318 4320 0
856 -113 115 -4318 -4320 0
856 113 115 4318 -4320 0
856 -113 -115 -4318 4320 0
856 113 -115 4318 4320 0
856 -21 -39 2309 -2311 0
856 -21 39 2309 2311 0
856 21 -39 -2309 -2311 0
856 21 39 -2309 2311 0
856 -21 39 -2309 -2311 0
856 21 39 2309 -2311 0
856 -21 -39 -2309 2311 0
856 21 -39 2309 2311 0
856 -114 -116 3995 -3997 0
856 -114 116 3995 3997 0
856 114 -116 -3995 -3997 0
856 114 116 -3995 3997 0
856 -114 116 -3995 -3997 0
856 114 116 3995 -3997 0
856 -114 -116 -3995 3997 0
856 114 -116 3995 3997 0
856 -65 -67 3992 -3994 0
856 -65 67 3992 3994 0
856 65 -67 -3992 -3994 0
856 65 67 -3992 3994 0
856 -65 67 -3992 -3994 0
856 65 67 3992 -3994 0
856 -65 -67 -3992 3994 0
856 65 -67 3992 3994 0
856 -515 -565 1995 -1997 0
856 -515 565 1995 1997 0
856 515 -565 -1995 -1997 0
856 515 565 -1995 1997 0
856 -515 565 -1995 -1997 0
856 515 565 1995 -1997 0
856 -515 -565 -1995 1997 0
856 515 -565 1995 1997 0
856 54 -63 -77 -2492 0
856 54 -63 77 2492 0
856 -54 63 -77 -2492 0
856 -54 63 77 2492 0
856 -54 -63 77 -2492 0
856 54 63 77 -2492 0
856 -54 -63 -77 2492 0
856 54 63 -77 2492 0
856 -102 -104 4311 -4313 0
856 -102 104 4311 4313 0
856 102 -104 -4311 -4313 0
856 102 104 -4311 4313 0
856 -102 104 -4311 -4313 0
856 102 104 4311 -4313 0
856 -102 -104 -4311 4313 0
856 102 -104 4311 4313 0
856 -15 -16 3988 -3990 0
856 -15 16 3988 3990 0
856 15 -16 -3988 -3990 0
856 15 16 -3988 3990 0
856 -15 16 -3988 -3990 0
856 15 16 3988 -3990 0
856 -15 -16 -3988 3990 0
856 15 -16 3988 3990 0
856 -86 -87 4305 -4307 0
856 -86 87 4305 4307 0
856 86 -87 -4305 -4307 0
856 86 87 -4305 4307 0
856 -86 87 -4305 -4307 0
856 86 87 4305 -4307 0
856 -86 -87 -4305 4307 0
856 86 -87 4305 4307 0
856 -78 -82 4302 -4304 0
856 -78 82 4302 4304 0
856 78 -82 -4302 -4304 0
856 78 82 -4302 4304 0
856 -78 82 -4302 -4304 0
856 78 82 4302 -4304 0
856 -78 -82 -4302 4304 0
856 78 -82 4302 4304 0
856 -88 -94 4307 -4309 0
856 -88 94 4307 4309 0
856 88 -94 -4307 -4309 0
856 88 94 -4307 4309 0
856 -88 94 -4307 -4309 0
856 88 94 4307 -4309 0
856 -88 -94 -4307 4309 0
856 88 -94 4307 4309 0
856 -97 -99 4309 -4311 0
856 -97 99 4309 4311 0
856 97 -99 -4309 -4311 0
856 97 99 -4309 4311 0
856 -97 99 -4309 -4311 0
856 97 99 4309 -4311 0
856 -97 -99 -4309 4311 0
856 97 -99 4309 4311 0
856 -108 -109 4315 -4317 0
856 -108 109 4315 4317 0
856 108 -109 -4315 -4317 0
856 108 109 -4315 4317 0
856 -108 109 -4315 -4317 0
856 108 109 4315 -4317 0
856 -108 -109 -4315 4317 0
856 108 -109 4315 4317 0
856 -538 -588 2156 -2158 0
856 -538 588 2156 2158 0
856 538 -588 -2156 -2158 0
856 538 588 -2156 2158 0
856 -538 588 -2156 -2158 0
856 538 588 2156 -2158 0
856 -538 -588 -2156 2158 0
856 538 -588 2156 2158 0
856 -112 -114 3979 -3981 0
856 -112 114 3979 3981 0
856 112 -114 -3979 -3981 0
856 112 114 -3979 3981 0
856 -112 114 -3979 -3981 0
856 112 114 3979 -3981 0
856 -112 -114 -3979 3981 0
856 112 -114 3979 3981 0
856 -515 -516 5431 -5433 0
856 -515 516 5431 5433 0
856 515 -516 -5431 -5433 0
856 515 516 -5431 5433 0
856 -515 516 -5431 -5433 0
856 515 516 5431 -5433 0
856 -515 -516 -5431 5433 0
856 515 -516 5431 5433 0
856 -544 -545 5435 -5437 0
856 -544 545 5435 5437 0
856 544 -545 -5435 -5437 0
856 544 545 -5435 5437 0
856 -544 545 -5435 -5437 0
856 544 545 5435 -5437 0
856 -544 -545 -5435 5437 0
856 544 -545 5435 5437 0
856 -67 -68 3975 -3977 0
856 -67 68 3975 3977 0
856 67 -68 -3975 -3977 0
856 67 68 -3975 3977 0
856 -67 68 -3975 -3977 0
856 67 68 3975 -3977 0
856 -67 -68 -3975 3977 0
856 67 -68 3975 3977 0
856 -118 -122 4322 -4324 0
856 -118 122 4322 4324 0
856 118 -122 -4322 -4324 0
856 118 122 -4322 4324 0
856 -118 122 -4322 -4324 0
856 118 122 4322 -4324 0
856 -118 -122 -4322 4324 0
856 118 -122 4322 4324 0
856 -467 -514 1987 -1989 0
856 -467 514 1987 1989 0
856 467 -514 -1987 -1989 0
856 467 514 -1987 1989 0
856 -467 514 -1987 -1989 0
856 467 514 1987 -1989 0
856 -467 -514 -1987 1989 0
856 467 -514 1987 1989 0
856 -20 -61 3971 -3973 0
856 -20 61 3971 3973 0
856 20 -61 -3971 -3973 0
856 20 61 -3971 3973 0
856 -20 61 -3971 -3973 0
856 20 61 3971 -3973 0
856 -20 -61 -3971 3973 0
856 20 -61 3971 3973 0
856 -142 -143 4334 -4336 0
856 -142 143 4334 4336 0
856 142 -143 -4334 -4336 0
856 142 143 -4334 4336 0
856 -142 143 -4334 -4336 0
856 142 143 4334 -4336 0
856 -142 -143 -4334 4336 0
856 142 -143 4334 4336 0
856 -127 -128 4325 -4327 0
856 -127 128 4325 4327 0
856 127 -128 -4325 -4327 0
856 127 128 -4325 4327 0
856 -127 128 -4325 -4327 0
856 127 128 4325 -4327 0
856 -127 -128 -4325 4327 0
856 127 -128 4325 4327 0
856 -455 -507 1245 -1247 0
856 -455 507 1245 1247 0
856 455 -507 -1245 -1247 0
856 455 507 -1245 1247 0
856 -455 507 -1245 -1247 0
856 455 507 1245 -1247 0
856 -455 -507 -1245 1247 0
856 455 -507 1245 1247 0
856 -135 -136 4329 -4331 0
856 -135 136 4329 4331 0
856 135 -136 -4329 -4331 0
856 135 136 -4329 4331 0
856 -135 136 -4329 -4331 0
856 135 136 4329 -4331 0
856 -135 -136 -4329 4331 0
856 135 -136 4329 4331 0
856 -137 -138 4331 -4333 0
856 -137 138 4331 4333 0
856 137 -138 -4331 -4333 0
856 137 138 -4331 4333 0
856 -137 138 -4331 -4333 0
856 137 138 4331 -4333 0
856 -137 -138 -4331 4333 0
856 137 -138 4331 4333 0
856 -571 -593 1359 -1361 0
856 -571 593 1359 1361 0
856 571 -593 -1359 -1361 0
856 571 593 -1359 1361 0
856 -571 593 -1359 -1361 0
856 571 593 1359 -1361 0
856 -571 -593 -1359 1361 0
856 571 -593 1359 1361 0
856 -397 -398 5000 -5002 0
856 -397 398 5000 5002 0
856 397 -398 -5000 -5002 0
856 397 398 -5000 5002 0
856 -397 398 -5000 -5002 0
856 397 398 5000 -5002 0
856 -397 -398 -5000 5002 0
856 397 -398 5000 5002 0
856 -563 -654 1982 -1984 0
856 -563 654 1982 1984 0
856 563 -654 -1982 -1984 0
856 563 654 -1982 1984 0
856 -563 654 -1982 -1984 0
856 563 654 1982 -1984 0
856 -563 -654 -1982 1984 0
856 563 -654 1982 1984 0
856 -114 -115 3963 -3965 0
856 -114 115 3963 3965 0
856 114 -115 -3963 -3965 0
856 114 115 -3963 3965 0
856 -114 115 -3963 -3965 0
856 114 115 3963 -3965 0
856 -114 -115 -3963 3965 0
856 114 -115 3963 3965 0
856 341 -342 -343 -4344 0
856 341 -342 343 4344 0
856 -341 342 -343 -4344 0
856 -341 342 343 4344 0
856 -341 -342 343 -4344 0
856 341 342 343 -4344 0
856 -341 -342 -343 4344 0
856 341 342 -343 4344 0
856 -65 -69 3960 -3962 0
856 -65 69 3960 3962 0
856 65 -69 -3960 -3962 0
856 65 69 -3960 3962 0
856 -65 69 -3960 -3962 0
856 65 69 3960 -3962 0
856 -65 -69 -3960 3962 0
856 65 -69 3960 3962 0
856 368 -414 -466 -1981 0
856 368 -414 466 1981 0
856 -368 414 -466 -1981 0
856 -368 414 466 1981 0
856 -368 -414 466 -1981 0
856 368 414 466 -1981 0
856 -368 -414 -466 1981 0
856 368 414 -466 1981 0
856 -149 -281 4338 -4340 0
856 -149 281 4338 4340 0
856 149 -281 -4338 -4340 0
856 149 281 -4338 4340 0
856 -149 281 -4338 -4340 0
856 149 281 4338 -4340 0
856 -149 -281 -4338 4340 0
856 149 -281 4338 4340 0
856 -483 -540 2169 -2171 0
856 -483 540 2169 2171 0
856 483 -540 -2169 -2171 0
856 483 540 -2169 2171 0
856 -483 540 -2169 -2171 0
856 483 540 2169 -2171 0
856 -483 -540 -2169 2171 0
856 483 -540 2169 2171 0
856 -19 -20 3956 -3958 0
856 -19 20 3956 3958 0
856 19 -20 -3956 -3958 0
856 19 20 -3956 3958 0
856 -19 20 -3956 -3958 0
856 19 20 3956 -3958 0
856 -19 -20 -3956 3958 0
856 19 -20 3956 3958 0
856 -352 -353 4606 -4608 0
856 -352 353 4606 4608 0
856 352 -353 -4606 -4608 0
856 352 353 -4606 4608 0
856 -352 353 -4606 -4608 0
856 352 353 4606 -4608 0
856 -352 -353 -4606 4608 0
856 352 -353 4606 4608 0
856 -346 -347 4346 -4348 0
856 -346 347 4346 4348 0
856 346 -347 -4346 -4348 0
856 346 347 -4346 4348 0
856 -346 347 -4346 -4348 0
856 346 347 4346 -4348 0
856 -346 -347 -4346 4348 0
856 346 -347 4346 4348 0
856 -85 -97 2492 -2494 0
856 -85 97 2492 2494 0
856 85 -97 -2492 -2494 0
856 85 97 -2492 2494 0
856 -85 97 -2492 -2494 0
856 85 97 2492 -2494 0
856 -85 -97 -2492 2494 0
856 85 -97 2492 2494 0
856 11 -13 -14 -3956 0
856 11 -13 14 3956 0
856 -11 13 -14 -3956 0
856 -11 13 14 3956 0
856 -11 -13 14 -3956 0
856 11 13 14 -3956 0
856 -11 -13 -14 3956 0
856 11 13 -14 3956 0
856 -562 -653 1975 -1977 0
856 -562 653 1975 1977 0
856 562 -653 -1975 -1977 0
856 562 653 -1975 1977 0
856 -562 653 -1975 -1977 0
856 562 653 1975 -1977 0
856 -562 -653 -1975 1977 0
856 562 -653 1975 1977 0
856 -149 -269 2717 -2719 0
856 -149 269 2717 2719 0
856 149 -269 -2717 -2719 0
856 149 269 -2717 2719 0
856 -149 269 -2717 -2719 0
856 149 269 2717 -2719 0
856 -149 -269 -2717 2719 0
856 149 -269 2717 2719 0
856 -364 -367 4532 -4534 0
856 -364 367 4532 4534 0
856 364 -367 -4532 -4534 0
856 364 367 -4532 4534 0
856 -364 367 -4532 -4534 0
856 364 367 4532 -4534 0
856 -364 -367 -4532 4534 0
856 364 -367 4532 4534 0
856 -113 -114 3949 -3951 0
856 -113 114 3949 3951 0
856 113 -114 -3949 -3951 0
856 113 114 -3949 3951 0
856 -113 114 -3949 -3951 0
856 113 114 3949 -3951 0
856 -113 -114 -3949 3951 0
856 113 -114 3949 3951 0
856 -26 -34 2274 -2276 0
856 -26 34 2274 2276 0
856 26 -34 -2274 -2276 0
856 26 34 -2274 2276 0
856 -26 34 -2274 -2276 0
856 26 34 2274 -2276 0
856 -26 -34 -2274 2276 0
856 26 -34 2274 2276 0
856 -35 -47 2282 -2284 0
856 -35 47 2282 2284 0
856 35 -47 -2282 -2284 0
856 35 47 -2282 2284 0
856 -35 47 -2282 -2284 0
856 35 47 2282 -2284 0
856 -35 -47 -2282 2284 0
856 35 -47 2282 2284 0
856 -346 -347 4366 -4368 0
856 -346 347 4366 4368 0
856 346 -347 -4366 -4368 0
856 346 347 -4366 4368 0
856 -346 347 -4366 -4368 0
856 346 347 4366 -4368 0
856 -346 -347 -4366 4368 0
856 346 -347 4366 4368 0
856 -61 -62 3944 -3946 0
856 -61 62 3944 3946 0
856 61 -62 -3944 -3946 0
856 61 62 -3944 3946 0
856 -61 62 -3944 -3946 0
856 61 62 3944 -3946 0
856 -61 -62 -3944 3946 0
856 61 -62 3944 3946 0
856 367 -413 -465 -1974 0
856 367 -413 465 1974 0
856 -367 413 -465 -1974 0
856 -367 413 465 1974 0
856 -367 -413 465 -1974 0
856 367 413 465 -1974 0
856 -367 -413 -465 1974 0
856 367 413 -465 1974 0
856 -353 -354 4353 -4355 0
856 -353 354 4353 4355 0
856 353 -354 -4353 -4355 0
856 353 354 -4353 4355 0
856 -353 354 -4353 -4355 0
856 353 354 4353 -4355 0
856 -353 -354 -4353 4355 0
856 353 -354 4353 4355 0
856 -484 -531 2176 -2178 0
856 -484 531 2176 2178 0
856 484 -531 -2176 -2178 0
856 484 531 -2176 2178 0
856 -484 531 -2176 -2178 0
856 484 531 2176 -2178 0
856 -484 -531 -2176 2178 0
856 484 -531 2176 2178 0
856 12 -13 -18 -3942 0
856 12 -13 18 3942 0
856 -12 13 -18 -3942 0
856 -12 13 18 3942 0
856 -12 -13 18 -3942 0
856 12 13 18 -3942 0
856 -12 -13 -18 3942 0
856 12 13 -18 3942 0
856 -357 -358 4357 -4359 0
856 -357 358 4357 4359 0
856 357 -358 -4357 -4359 0
856 357 358 -4357 4359 0
856 -357 358 -4357 -4359 0
856 357 358 4357 -4359 0
856 -357 -358 -4357 4359 0
856 357 -358 4357 4359 0
856 -506 -507 5426 -5428 0
856 -506 507 5426 5428 0
856 506 -507 -5426 -5428 0
856 506 507 -5426 5428 0
856 -506 507 -5426 -5428 0
856 506 507 5426 -5428 0
856 -506 -507 -5426 5428 0
856 506 -507 5426 5428 0
856 -116 -118 3935 -3937 0
856 -116 118 3935 3937 0
856 116 -118 -3935 -3937 0
856 116 118 -3935 3937 0
856 -116 118 -3935 -3937 0
856 116 118 3935 -3937 0
856 -116 -118 -3935 3937 0
856 116 -118 3935 3937 0
856 341 -342 -343 -4364 0
856 341 -342 343 4364 0
856 -341 342 -343 -4364 0
856 -341 342 343 4364 0
856 -341 -342 343 -4364 0
856 341 342 343 -4364 0
856 -341 -342 -343 4364 0
856 341 342 -343 4364 0
856 -344 -345 4364 -4366 0
856 -344 345 4364 4366 0
856 344 -345 -4364 -4366 0
856 344 345 -4364 4366 0
856 -344 345 -4364 -4366 0
856 344 345 4364 -4366 0
856 -344 -345 -4364 4366 0
856 344 -345 4364 4366 0
856 -114 -115 3933 -3935 0
856 -114 115 3933 3935 0
856 114 -115 -3933 -3935 0
856 114 115 -3933 3935 0
856 -114 115 -3933 -3935 0
856 114 115 3933 -3935 0
856 -114 -115 -3933 3935 0
856 114 -115 3933 3935 0
856 -350 -361 4370 -4372 0
856 -350 361 4370 4372 0
856 350 -361 -4370 -4372 0
856 350 361 -4370 4372 0
856 -350 361 -4370 -4372 0
856 350 361 4370 -4372 0
856 -350 -361 -4370 4372 0
856 350 -361 4370 4372 0
856 -69 -111 3931 -3933 0
856 -69 111 3931 3933 0
856 69 -111 -3931 -3933 0
856 69 111 -3931 3933 0
856 -69 111 -3931 -3933 0
856 69 111 3931 -3933 0
856 -69 -111 -3931 3933 0
856 69 -111 3931 3933 0
856 -31 -49 2184 -2186 0
856 -31 49 2184 2186 0
856 31 -49 -2184 -2186 0
856 31 49 -2184 2186 0
856 -31 49 -2184 -2186 0
856 31 49 2184 -2186 0
856 -31 -49 -2184 2186 0
856 31 -49 2184 2186 0
856 -65 -66 3928 -3930 0
856 -65 66 3928 3930 0
856 65 -66 -3928 -3930 0
856 65 66 -3928 3930 0
856 -65 66 -3928 -3930 0
856 65 66 3928 -3930 0
856 -65 -66 -3928 3930 0
856 65 -66 3928 3930 0
856 -364 -365 4374 -4376 0
856 -364 365 4374 4376 0
856 364 -365 -4374 -4376 0
856 364 365 -4374 4376 0
856 -364 365 -4374 -4376 0
856 364 365 4374 -4376 0
856 -364 -365 -4374 4376 0
856 364 -365 4374 4376 0
856 -368 -369 4378 -4380 0
856 -368 369 4378 4380 0
856 368 -369 -4378 -4380 0
856 368 369 -4378 4380 0
856 -368 369 -4378 -4380 0
856 368 369 4378 -4380 0
856 -368 -369 -4378 4380 0
856 368 -369 4378 4380 0
856 -18 -19 3924 -3926 0
856 -18 19 3924 3926 0
856 18 -19 -3924 -3926 0
856 18 19 -3924 3926 0
856 -18 19 -3924 -3926 0
856 18 19 3924 -3926 0
856 -18 -19 -3924 3926 0
856 18 -19 3924 3926 0
856 -146 -266 2696 -2698 0
856 -146 266 2696 2698 0
856 146 -266 -2696 -2698 0
856 146 266 -2696 2698 0
856 -146 266 -2696 -2698 0
856 146 266 2696 -2698 0
856 -146 -266 -2696 2698 0
856 146 -266 2696 2698 0
856 -408 -412 4991 -4993 0
856 -408 412 4991 4993 0
856 408 -412 -4991 -4993 0
856 408 412 -4991 4993 0
856 -408 412 -4991 -4993 0
856 408 412 4991 -4993 0
856 -408 -412 -4991 4993 0
856 408 -412 4991 4993 0
856 11 -12 -17 -3924 0
856 11 -12 17 3924 0
856 -11 12 -17 -3924 0
856 -11 12 17 3924 0
856 -11 -12 17 -3924 0
856 11 12 17 -3924 0
856 -11 -12 -17 3924 0
856 11 12 -17 3924 0
856 -453 -510 1959 -1961 0
856 -453 510 1959 1961 0
856 453 -510 -1959 -1961 0
856 453 510 -1959 1961 0
856 -453 510 -1959 -1961 0
856 453 510 1959 -1961 0
856 -453 -510 -1959 1961 0
856 453 -510 1959 1961 0
856 5 -17 -30 -2191 0
856 5 -17 30 2191 0
856 -5 17 -30 -2191 0
856 -5 17 30 2191 0
856 -5 -17 30 -2191 0
856 5 17 30 -2191 0
856 -5 -17 -30 2191 0
856 5 17 -30 2191 0
856 393 -394 -395 -5000 0
856 393 -394 395 5000 0
856 -393 394 -395 -5000 0
856 -393 394 395 5000 0
856 -393 -394 395 -5000 0
856 393 394 395 -5000 0
856 -393 -394 -395 5000 0
856 393 394 -395 5000 0
856 -111 -112 3916 -3918 0
856 -111 112 3916 3918 0
856 111 -112 -3916 -3918 0
856 111 112 -3916 3918 0
856 -111 112 -3916 -3918 0
856 111 112 3916 -3918 0
856 -111 -112 -3916 3918 0
856 111 -112 3916 3918 0
856 -394 -396 4985 -4987 0
856 -394 396 4985 4987 0
856 394 -396 -4985 -4987 0
856 394 396 -4985 4987 0
856 -394 396 -4985 -4987 0
856 394 396 4985 -4987 0
856 -394 -396 -4985 4987 0
856 394 -396 4985 4987 0
856 -350 -351 4385 -4387 0
856 -350 351 4385 4387 0
856 350 -351 -4385 -4387 0
856 350 351 -4385 4387 0
856 -350 351 -4385 -4387 0
856 350 351 4385 -4387 0
856 -350 -351 -4385 4387 0
856 350 -351 4385 4387 0
856 -50 -259 2192 -2194 0
856 -50 259 2192 2194 0
856 50 -259 -2192 -2194 0
856 50 259 -2192 2194 0
856 -50 259 -2192 -2194 0
856 50 259 2192 -2194 0
856 -50 -259 -2192 2194 0
856 50 -259 2192 2194 0
856 -64 -65 3912 -3914 0
856 -64 65 3912 3914 0
856 64 -65 -3912 -3914 0
856 64 65 -3912 3914 0
856 -64 65 -3912 -3914 0
856 64 65 3912 -3914 0
856 -64 -65 -3912 3914 0
856 64 -65 3912 3914 0
856 -358 -359 4390 -4392 0
856 -358 359 4390 4392 0
856 358 -359 -4390 -4392 0
856 358 359 -4390 4392 0
856 -358 359 -4390 -4392 0
856 358 359 4390 -4392 0
856 -358 -359 -4390 4392 0
856 358 -359 4390 4392 0
856 -366 -367 4394 -4396 0
856 -366 367 4394 4396 0
856 366 -367 -4394 -4396 0
856 366 367 -4394 4396 0
856 -366 367 -4394 -4396 0
856 366 367 4394 -4396 0
856 -366 -367 -4394 4396 0
856 366 -367 4394 4396 0
856 -14 -15 3907 -3909 0
856 -14 15 3907 3909 0
856 14 -15 -3907 -3909 0
856 14 15 -3907 3909 0
856 -14 15 -3907 -3909 0
856 14 15 3907 -3909 0
856 -14 -15 -3907 3909 0
856 14 -15 3907 3909 0
856 -559 -653 1954 -1956 0
856 -559 653 1954 1956 0
856 559 -653 -1954 -1956 0
856 559 653 -1954 1956 0
856 -559 653 -1954 -1956 0
856 559 653 1954 -1956 0
856 -559 -653 -1954 1956 0
856 559 -653 1954 1956 0
856 -21 -33 2197 -2199 0
856 -21 33 2197 2199 0
856 21 -33 -2197 -2199 0
856 21 33 -2197 2199 0
856 -21 33 -2197 -2199 0
856 21 33 2197 -2199 0
856 -21 -33 -2197 2199 0
856 21 -33 2197 2199 0
856 -497 -498 5422 -5424 0
856 -497 498 5422 5424 0
856 497 -498 -5422 -5424 0
856 497 498 -5422 5424 0
856 -497 498 -5422 -5424 0
856 497 498 5422 -5424 0
856 -497 -498 -5422 5424 0
856 497 -498 5422 5424 0
856 -416 -417 4980 -4982 0
856 -416 417 4980 4982 0
856 416 -417 -4980 -4982 0
856 416 417 -4980 4982 0
856 -416 417 -4980 -4982 0
856 416 417 4980 -4982 0
856 -416 -417 -4980 4982 0
856 416 -417 4980 4982 0
856 -351 -355 4402 -4404 0
856 -351 355 4402 4404 0
856 351 -355 -4402 -4404 0
856 351 355 -4402 4404 0
856 -351 355 -4402 -4404 0
856 351 355 4402 -4404 0
856 -351 -355 -4402 4404 0
856 351 -355 4402 4404 0
856 -345 -346 4399 -4401 0
856 -345 346 4399 4401 0
856 345 -346 -4399 -4401 0
856 345 346 -4399 4401 0
856 -345 346 -4399 -4401 0
856 345 346 4399 -4401 0
856 -345 -346 -4399 4401 0
856 345 -346 4399 4401 0
856 -116 -117 3901 -3903 0
856 -116 117 3901 3903 0
856 116 -117 -3901 -3903 0
856 116 117 -3901 3903 0
856 -116 117 -3901 -3903 0
856 116 117 3901 -3903 0
856 -116 -117 -3901 3903 0
856 116 -117 3901 3903 0
856 -76 -84 2484 -2486 0
856 -76 84 2484 2486 0
856 76 -84 -2484 -2486 0
856 76 84 -2484 2486 0
856 -76 84 -2484 -2486 0
856 76 84 2484 -2486 0
856 -76 -84 -2484 2486 0
856 76 -84 2484 2486 0
856 -113 -114 3899 -3901 0
856 -113 114 3899 3901 0
856 113 -114 -3899 -3901 0
856 113 114 -3899 3901 0
856 -113 114 -3899 -3901 0
856 113 114 3899 -3901 0
856 -113 -114 -3899 3901 0
856 113 -114 3899 3901 0
856 -358 -362 4405 -4407 0
856 -358 362 4405 4407 0
856 358 -362 -4405 -4407 0
856 358 362 -4405 4407 0
856 -358 362 -4405 -4407 0
856 358 362 4405 -4407 0
856 -358 -362 -4405 4407 0
856 358 -362 4405 4407 0
856 -68 -69 3896 -3898 0
856 -68 69 3896 3898 0
856 68 -69 -3896 -3898 0
856 68 69 -3896 3898 0
856 -68 69 -3896 -3898 0
856 68 69 3896 -3898 0
856 -68 -69 -3896 3898 0
856 68 -69 3896 3898 0
856 -558 -652 1947 -1949 0
856 -558 652 1947 1949 0
856 558 -652 -1947 -1949 0
856 558 652 -1947 1949 0
856 -558 652 -1947 -1949 0
856 558 652 1947 -1949 0
856 -558 -652 -1947 1949 0
856 558 -652 1947 1949 0
856 -362 -366 4565 -4567 0
856 -362 366 4565 4567 0
856 362 -366 -4565 -4567 0
856 362 366 -4565 4567 0
856 -362 366 -4565 -4567 0
856 362 366 4565 -4567 0
856 -362 -366 -4565 4567 0
856 362 -366 4565 4567 0
856 -364 -367 4407 -4409 0
856 -364 367 4407 4409 0
856 364 -367 -4407 -4409 0
856 364 367 -4407 4409 0
856 -364 367 -4407 -4409 0
856 364 367 4407 -4409 0
856 -364 -367 -4407 4409 0
856 364 -367 4407 4409 0
856 -14 -18 3892 -3894 0
856 -14 18 3892 3894 0
856 14 -18 -3892 -3894 0
856 14 18 -3892 3894 0
856 -14 18 -3892 -3894 0
856 14 18 3892 -3894 0
856 -14 -18 -3892 3894 0
856 14 -18 3892 3894 0
856 7 -19 -22 -2205 0
856 7 -19 22 2205 0
856 -7 19 -22 -2205 0
856 -7 19 22 2205 0
856 -7 -19 22 -2205 0
856 7 19 22 -2205 0
856 -7 -19 -22 2205 0
856 7 19 -22 2205 0
856 -347 -348 4414 -4416 0
856 -347 348 4414 4416 0
856 347 -348 -4414 -4416 0
856 347 348 -4414 4416 0
856 -347 348 -4414 -4416 0
856 347 348 4414 -4416 0
856 -347 -348 -4414 4416 0
856 347 -348 4414 4416 0
856 -367 -369 4550 -4552 0
856 -367 369 4550 4552 0
856 367 -369 -4550 -4552 0
856 367 369 -4550 4552 0
856 -367 369 -4550 -4552 0
856 367 369 4550 -4552 0
856 -367 -369 -4550 4552 0
856 367 -369 4550 4552 0
856 -454 -506 1238 -1240 0
856 -454 506 1238 1240 0
856 454 -506 -1238 -1240 0
856 454 506 -1238 1240 0
856 -454 506 -1238 -1240 0
856 454 506 1238 -1240 0
856 -454 -506 -1238 1240 0
856 454 -506 1238 1240 0
856 353 -409 -451 -1946 0
856 353 -409 451 1946 0
856 -353 409 -451 -1946 0
856 -353 409 451 1946 0
856 -353 -409 451 -1946 0
856 353 409 451 -1946 0
856 -353 -409 -451 1946 0
856 353 409 -451 1946 0
856 -405 -407 4976 -4978 0
856 -405 407 4976 4978 0
856 405 -407 -4976 -4978 0
856 405 407 -4976 4978 0
856 -405 407 -4976 -4978 0
856 405 407 4976 -4978 0
856 -405 -407 -4976 4978 0
856 405 -407 4976 4978 0
856 -491 -492 5417 -5419 0
856 -491 492 5417 5419 0
856 491 -492 -5417 -5419 0
856 491 492 -5417 5419 0
856 -491 492 -5417 -5419 0
856 491 492 5417 -5419 0
856 -491 -492 -5417 5419 0
856 491 -492 5417 5419 0
856 -105 -106 3885 -3887 0
856 -105 106 3885 3887 0
856 105 -106 -3885 -3887 0
856 105 106 -3885 3887 0
856 -105 106 -3885 -3887 0
856 105 106 3885 -3887 0
856 -105 -106 -3885 3887 0
856 105 -106 3885 3887 0
856 -368 -369 4422 -4424 0
856 -368 369 4422 4424 0
856 368 -369 -4422 -4424 0
856 368 369 -4422 4424 0
856 -368 369 -4422 -4424 0
856 368 369 4422 -4424 0
856 -368 -369 -4422 4424 0
856 368 -369 4422 4424 0
856 -102 -103 3883 -3885 0
856 -102 103 3883 3885 0
856 102 -103 -3883 -3885 0
856 102 103 -3883 3885 0
856 -102 103 -3883 -3885 0
856 102 103 3883 -3885 0
856 -102 -103 -3883 3885 0
856 102 -103 3883 3885 0
856 -356 -357 4417 -4419 0
856 -356 357 4417 4419 0
856 356 -357 -4417 -4419 0
856 356 357 -4417 4419 0
856 -356 357 -4417 -4419 0
856 356 357 4417 -4419 0
856 -356 -357 -4417 4419 0
856 356 -357 4417 4419 0
856 -56 -59 3880 -3882 0
856 -56 59 3880 3882 0
856 56 -59 -3880 -3882 0
856 56 59 -3880 3882 0
856 -56 59 -3880 -3882 0
856 56 59 3880 -3882 0
856 -56 -59 -3880 3882 0
856 56 -59 3880 3882 0
856 -507 -557 1939 -1941 0
856 -507 557 1939 1941 0
856 507 -557 -1939 -1941 0
856 507 557 -1939 1941 0
856 -507 557 -1939 -1941 0
856 507 557 1939 -1941 0
856 -507 -557 -1939 1941 0
856 507 -557 1939 1941 0
856 -363 -365 4420 -4422 0
856 -363 365 4420 4422 0
856 363 -365 -4420 -4422 0
856 363 365 -4420 4422 0
856 -363 365 -4420 -4422 0
856 363 365 4420 -4422 0
856 -363 -365 -4420 4422 0
856 363 -365 4420 4422 0
856 -35 -43 2212 -2214 0
856 -35 43 2212 2214 0
856 35 -43 -2212 -2214 0
856 35 43 -2212 2214 0
856 -35 43 -2212 -2214 0
856 35 43 2212 -2214 0
856 -35 -43 -2212 2214 0
856 35 -43 2212 2214 0
856 -9 -51 3875 -3877 0
856 -9 51 3875 3877 0
856 9 -51 -3875 -3877 0
856 9 51 -3875 3877 0
856 -9 51 -3875 -3877 0
856 9 51 3875 -3877 0
856 -9 -51 -3875 3877 0
856 9 -51 3875 3877 0
856 -136 -148 2709 -2711 0
856 -136 148 2709 2711 0
856 136 -148 -2709 -2711 0
856 136 148 -2709 2711 0
856 -136 148 -2709 -2711 0
856 136 148 2709 -2711 0
856 -136 -148 -2709 2711 0
856 136 -148 2709 2711 0
856 -351 -352 4430 -4432 0
856 -351 352 4430 4432 0
856 351 -352 -4430 -4432 0
856 351 352 -4430 4432 0
856 -351 352 -4430 -4432 0
856 351 352 4430 -4432 0
856 -351 -352 -4430 4432 0
856 351 -352 4430 4432 0
856 -347 -348 4427 -4429 0
856 -347 348 4427 4429 0
856 347 -348 -4427 -4429 0
856 347 348 -4427 4429 0
856 -347 348 -4427 -4429 0
856 347 348 4427 -4429 0
856 -347 -348 -4427 4429 0
856 347 -348 4427 4429 0
856 4 -13 -27 -2282 0
856 4 -13 27 2282 0
856 -4 13 -27 -2282 0
856 -4 13 27 2282 0
856 -4 -13 27 -2282 0
856 4 13 27 -2282 0
856 -4 -13 -27 2282 0
856 4 13 -27 2282 0
856 -96 -269 2486 -2488 0
856 -96 269 2486 2488 0
856 96 -269 -2486 -2488 0
856 96 269 -2486 2488 0
856 -96 269 -2486 -2488 0
856 96 269 2486 -2488 0
856 -96 -269 -2486 2488 0
856 96 -269 2486 2488 0
856 -356 -359 4434 -4436 0
856 -356 359 4434 4436 0
856 356 -359 -4434 -4436 0
856 356 359 -4434 4436 0
856 -356 359 -4434 -4436 0
856 356 359 4434 -4436 0
856 -356 -359 -4434 4436 0
856 356 -359 4434 4436 0
856 -363 -365 4438 -4440 0
856 -363 365 4438 4440 0
856 363 -365 -4438 -4440 0
856 363 365 -4438 4440 0
856 -363 365 -4438 -4440 0
856 363 365 4438 -4440 0
856 -363 -365 -4438 4440 0
856 363 -365 4438 4440 0
856 -106 -108 3867 -3869 0
856 -106 108 3867 3869 0
856 106 -108 -3867 -3869 0
856 106 108 -3867 3869 0
856 -106 108 -3867 -3869 0
856 106 108 3867 -3869 0
856 -106 -108 -3867 3869 0
856 106 -108 3867 3869 0
856 -57 -59 3864 -3866 0
856 -57 59 3864 3866 0
856 57 -59 -3864 -3866 0
856 57 59 -3864 3866 0
856 -57 59 -3864 -3866 0
856 57 59 3864 -3866 0
856 -57 -59 -3864 3866 0
856 57 -59 3864 3866 0
856 -459 -506 1931 -1933 0
856 -459 506 1931 1933 0
856 459 -506 -1931 -1933 0
856 459 506 -1931 1933 0
856 -459 506 -1931 -1933 0
856 459 506 1931 -1933 0
856 -459 -506 -1931 1933 0
856 459 -506 1931 1933 0
856 345 -397 -450 -1141 0
856 345 -397 450 1141 0
856 -345 397 -450 -1141 0
856 -345 397 450 1141 0
856 -345 -397 450 -1141 0
856 345 397 450 -1141 0
856 -345 -397 -450 1141 0
856 345 397 -450 1141 0
856 -36 -44 2219 -2221 0
856 -36 44 2219 2221 0
856 36 -44 -2219 -2221 0
856 36 44 -2219 2221 0
856 -36 44 -2219 -2221 0
856 36 44 2219 -2221 0
856 -36 -44 -2219 2221 0
856 36 -44 2219 2221 0
856 -7 -8 3860 -3862 0
856 -7 8 3860 3862 0
856 7 -8 -3860 -3862 0
856 7 8 -3860 3862 0
856 -7 8 -3860 -3862 0
856 7 8 3860 -3862 0
856 -7 -8 -3860 3862 0
856 7 -8 3860 3862 0
856 -355 -357 4561 -4563 0
856 -355 357 4561 4563 0
856 355 -357 -4561 -4563 0
856 355 357 -4561 4563 0
856 -355 357 -4561 -4563 0
856 355 357 4561 -4563 0
856 -355 -357 -4561 4563 0
856 355 -357 4561 4563 0
856 341 -342 -343 -4446 0
856 341 -342 343 4446 0
856 -341 342 -343 -4446 0
856 -341 342 343 4446 0
856 -341 -342 343 -4446 0
856 341 342 343 -4446 0
856 -341 -342 -343 4446 0
856 341 342 -343 4446 0
856 -344 -345 4555 -4557 0
856 -344 345 4555 4557 0
856 344 -345 -4555 -4557 0
856 344 345 -4555 4557 0
856 -344 345 -4555 -4557 0
856 344 345 4555 -4557 0
856 -344 -345 -4555 4557 0
856 344 -345 4555 4557 0
856 3 -4 -5 -3860 0
856 3 -4 5 3860 0
856 -3 4 -5 -3860 0
856 -3 4 5 3860 0
856 -3 -4 5 -3860 0
856 3 4 5 -3860 0
856 -3 -4 -5 3860 0
856 3 4 -5 3860 0
856 -364 -366 4454 -4456 0
856 -364 366 4454 4456 0
856 364 -366 -4454 -4456 0
856 364 366 -4454 4456 0
856 -364 366 -4454 -4456 0
856 364 366 4454 -4456 0
856 -364 -366 -4454 4456 0
856 364 -366 4454 4456 0
856 -346 -351 4447 -4449 0
856 -346 351 4447 4449 0
856 346 -351 -4447 -4449 0
856 346 351 -4447 4449 0
856 -346 351 -4447 -4449 0
856 346 351 4447 -4449 0
856 -346 -351 -4447 4449 0
856 346 -351 4447 4449 0
856 -56 -58 3850 -3852 0
856 -56 58 3850 3852 0
856 56 -58 -3850 -3852 0
856 56 58 -3850 3852 0
856 -56 58 -3850 -3852 0
856 56 58 3850 -3852 0
856 -56 -58 -3850 3852 0
856 56 -58 3850 3852 0
856 -555 -659 1926 -1928 0
856 -555 659 1926 1928 0
856 555 -659 -1926 -1928 0
856 555 659 -1926 1928 0
856 -555 659 -1926 -1928 0
856 555 659 1926 -1928 0
856 -555 -659 -1926 1928 0
856 555 -659 1926 1928 0
856 10 -12 -25 -2226 0
856 10 -12 25 2226 0
856 -10 12 -25 -2226 0
856 -10 12 25 2226 0
856 -10 -12 25 -2226 0
856 10 12 25 -2226 0
856 -10 -12 -25 2226 0
856 10 12 -25 2226 0
856 -354 -358 4449 -4451 0
856 -354 358 4449 4451 0
856 354 -358 -4449 -4451 0
856 354 358 -4449 4451 0
856 -354 358 -4449 -4451 0
856 354 358 4449 -4451 0
856 -354 -358 -4449 4451 0
856 354 -358 4449 4451 0
856 -6 -7 3846 -3848 0
856 -6 7 3846 3848 0
856 6 -7 -3846 -3848 0
856 6 7 -3846 3848 0
856 -6 7 -3846 -3848 0
856 6 7 3846 -3848 0
856 -6 -7 -3846 3848 0
856 6 -7 3846 3848 0
856 -362 -363 4452 -4454 0
856 -362 363 4452 4454 0
856 362 -363 -4452 -4454 0
856 362 363 -4452 4454 0
856 -362 363 -4452 -4454 0
856 362 363 4452 -4454 0
856 -362 -363 -4452 4454 0
856 362 -363 4452 4454 0
856 360 -406 -458 -1925 0
856 360 -406 458 1925 0
856 -360 406 -458 -1925 0
856 -360 406 458 1925 0
856 -360 -406 458 -1925 0
856 360 406 458 -1925 0
856 -360 -406 -458 1925 0
856 360 406 -458 1925 0
856 -45 -254 2227 -2229 0
856 -45 254 2227 2229 0
856 45 -254 -2227 -2229 0
856 45 254 -2227 2229 0
856 -45 254 -2227 -2229 0
856 45 254 2227 -2229 0
856 -45 -254 -2227 2229 0
856 45 -254 2227 2229 0
856 -418 -419 4966 -4968 0
856 -418 419 4966 4968 0
856 418 -419 -4966 -4968 0
856 418 419 -4966 4968 0
856 -418 419 -4966 -4968 0
856 418 419 4966 -4968 0
856 -418 -419 -4966 4968 0
856 418 -419 4966 4968 0
856 -107 -108 3854 -3856 0
856 -107 108 3854 3856 0
856 107 -108 -3854 -3856 0
856 107 108 -3854 3856 0
856 -107 108 -3854 -3856 0
856 107 108 3854 -3856 0
856 -107 -108 -3854 3856 0
856 107 -108 3854 3856 0
856 -554 -591 1240 -1242 0
856 -554 591 1240 1242 0
856 554 -591 -1240 -1242 0
856 554 591 -1240 1242 0
856 -554 591 -1240 -1242 0
856 554 591 1240 -1242 0
856 -554 -591 -1240 1242 0
856 554 -591 1240 1242 0
856 -104 -106 3839 -3841 0
856 -104 106 3839 3841 0
856 104 -106 -3839 -3841 0
856 104 106 -3839 3841 0
856 -104 106 -3839 -3841 0
856 104 106 3839 -3841 0
856 -104 -106 -3839 3841 0
856 104 -106 3839 3841 0
856 -462 -464 5413 -5415 0
856 -462 464 5413 5415 0
856 462 -464 -5413 -5415 0
856 462 464 -5413 5415 0
856 -462 464 -5413 -5415 0
856 462 464 5413 -5415 0
856 -462 -464 -5413 5415 0
856 462 -464 5413 5415 0
856 -354 -356 4466 -4468 0
856 -354 356 4466 4468 0
856 354 -356 -4466 -4468 0
856 354 356 -4466 4468 0
856 -354 356 -4466 -4468 0
856 354 356 4466 -4468 0
856 -354 -356 -4466 4468 0
856 354 -356 4466 4468 0
856 -57 -101 3837 -3839 0
856 -57 101 3837 3839 0
856 57 -101 -3837 -3839 0
856 57 101 -3837 3839 0
856 -57 101 -3837 -3839 0
856 57 101 3837 -3839 0
856 -57 -101 -3837 3839 0
856 57 -101 3837 3839 0
856 -347 -351 4463 -4465 0
856 -347 351 4463 4465 0
856 347 -351 -4463 -4465 0
856 347 351 -4463 4465 0
856 -347 351 -4463 -4465 0
856 347 351 4463 -4465 0
856 -347 -351 -4463 4465 0
856 347 -351 4463 4465 0
856 -54 -55 3835 -3837 0
856 -54 55 3835 3837 0
856 54 -55 -3835 -3837 0
856 54 55 -3835 3837 0
856 -54 55 -3835 -3837 0
856 54 55 3835 -3837 0
856 -54 -55 -3835 3837 0
856 54 -55 3835 3837 0
856 -26 -38 2232 -2234 0
856 -26 38 2232 2234 0
856 26 -38 -2232 -2234 0
856 26 38 -2232 2234 0
856 -26 38 -2232 -2234 0
856 26 38 2232 -2234 0
856 -26 -38 -2232 2234 0
856 26 -38 2232 2234 0
856 -5 -6 3832 -3834 0
856 -5 6 3832 3834 0
856 5 -6 -3832 -3834 0
856 5 6 -3832 3834 0
856 -5 6 -3832 -3834 0
856 5 6 3832 -3834 0
856 -5 -6 -3832 3834 0
856 5 -6 3832 3834 0
856 359 -405 -457 -1918 0
856 359 -405 457 1918 0
856 -359 405 -457 -1918 0
856 -359 405 457 1918 0
856 -359 -405 457 -1918 0
856 359 405 457 -1918 0
856 -359 -405 -457 1918 0
856 359 405 -457 1918 0
856 -361 -362 4470 -4472 0
856 -361 362 4470 4472 0
856 361 -362 -4470 -4472 0
856 361 362 -4470 4472 0
856 -361 362 -4470 -4472 0
856 361 362 4470 -4472 0
856 -361 -362 -4470 4472 0
856 361 -362 4470 4472 0
856 -46 -261 2276 -2278 0
856 -46 261 2276 2278 0
856 46 -261 -2276 -2278 0
856 46 261 -2276 2278 0
856 -46 261 -2276 -2278 0
856 46 261 2276 -2278 0
856 -46 -261 -2276 2278 0
856 46 -261 2276 2278 0
856 -500 -511 5112 -5114 0
856 -500 511 5112 5114 0
856 500 -511 -5112 -5114 0
856 500 511 -5112 5114 0
856 -500 511 -5112 -5114 0
856 500 511 5112 -5114 0
856 -500 -511 -5112 5114 0
856 500 -511 5112 5114 0
856 -411 -412 4962 -4964 0
856 -411 412 4962 4964 0
856 411 -412 -4962 -4964 0
856 411 412 -4962 4964 0
856 -411 412 -4962 -4964 0
856 411 412 4962 -4964 0
856 -411 -412 -4962 4964 0
856 411 -412 4962 4964 0
856 -104 -107 3824 -3826 0
856 -104 107 3824 3826 0
856 104 -107 -3824 -3826 0
856 104 107 -3824 3826 0
856 -104 107 -3824 -3826 0
856 104 107 3824 -3826 0
856 -104 -107 -3824 3826 0
856 104 -107 3824 3826 0
856 -503 -553 1911 -1913 0
856 -503 553 1911 1913 0
856 503 -553 -1911 -1913 0
856 503 553 -1911 1913 0
856 -503 553 -1911 -1913 0
856 503 553 1911 -1913 0
856 -503 -553 -1911 1913 0
856 503 -553 1911 1913 0
856 -75 -83 2477 -2479 0
856 -75 83 2477 2479 0
856 75 -83 -2477 -2479 0
856 75 83 -2477 2479 0
856 -75 83 -2477 -2479 0
856 75 83 2477 -2479 0
856 -75 -83 -2477 2479 0
856 75 -83 2477 2479 0
856 -59 -101 3821 -3823 0
856 -59 101 3821 3823 0
856 59 -101 -3821 -3823 0
856 59 101 -3821 3823 0
856 -59 101 -3821 -3823 0
856 59 101 3821 -3823 0
856 -59 -101 -3821 3823 0
856 59 -101 3821 3823 0
856 -346 -348 4478 -4480 0
856 -346 348 4478 4480 0
856 346 -348 -4478 -4480 0
856 346 348 -4478 4480 0
856 -346 348 -4478 -4480 0
856 346 348 4478 -4480 0
856 -346 -348 -4478 4480 0
856 346 -348 4478 4480 0
856 -355 -358 4543 -4545 0
856 -355 358 4543 4545 0
856 355 -358 -4543 -4545 0
856 355 358 -4543 4545 0
856 -355 358 -4543 -4545 0
856 355 358 4543 -4545 0
856 -355 -358 -4543 4545 0
856 355 -358 4543 4545 0
856 -553 -600 1233 -1235 0
856 -553 600 1233 1235 0
856 553 -600 -1233 -1235 0
856 553 600 -1233 1235 0
856 -553 600 -1233 -1235 0
856 553 600 1233 -1235 0
856 -553 -600 -1233 1235 0
856 553 -600 1233 1235 0
856 -51 -52 3816 -3818 0
856 -51 52 3816 3818 0
856 51 -52 -3816 -3818 0
856 51 52 -3816 3818 0
856 -51 52 -3816 -3818 0
856 51 52 3816 -3818 0
856 -51 -52 -3816 3818 0
856 51 -52 3816 3818 0
856 -362 -363 4486 -4488 0
856 -362 363 4486 4488 0
856 362 -363 -4486 -4488 0
856 362 363 -4486 4488 0
856 -362 363 -4486 -4488 0
856 362 363 4486 -4488 0
856 -362 -363 -4486 4488 0
856 362 -363 4486 4488 0
856 -354 -355 4481 -4483 0
856 -354 355 4481 4483 0
856 354 -355 -4481 -4483 0
856 354 355 -4481 4483 0
856 -354 355 -4481 -4483 0
856 354 355 4481 -4483 0
856 -354 -355 -4481 4483 0
856 354 -355 4481 4483 0
856 -39 -47 2240 -2242 0
856 -39 47 2240 2242 0
856 39 -47 -2240 -2242 0
856 39 47 -2240 2242 0
856 -39 47 -2240 -2242 0
856 39 47 2240 -2242 0
856 -39 -47 -2240 2242 0
856 39 -47 2240 2242 0
856 1 -2 -4 -3814 0
856 1 -2 4 3814 0
856 -1 2 -4 -3814 0
856 -1 2 4 3814 0
856 -1 -2 4 -3814 0
856 1 2 4 -3814 0
856 -1 -2 -4 3814 0
856 1 2 -4 3814 0
856 -358 -359 4484 -4486 0
856 -358 359 4484 4486 0
856 358 -359 -4484 -4486 0
856 358 359 -4484 4486 0
856 -358 359 -4484 -4486 0
856 358 359 4484 -4486 0
856 -358 -359 -4484 4486 0
856 358 -359 4484 4486 0
856 -74 -82 2470 -2472 0
856 -74 82 2470 2472 0
856 74 -82 -2470 -2472 0
856 74 82 -2470 2472 0
856 -74 82 -2470 -2472 0
856 74 82 2470 -2472 0
856 -74 -82 -2470 2472 0
856 74 -82 2470 2472 0
856 -522 -580 1351 -1353 0
856 -522 580 1351 1353 0
856 522 -580 -1351 -1353 0
856 522 580 -1351 1353 0
856 -522 580 -1351 -1353 0
856 522 580 1351 -1353 0
856 -522 -580 -1351 1353 0
856 522 -580 1351 1353 0
856 -347 -349 4494 -4496 0
856 -347 349 4494 4496 0
856 347 -349 -4494 -4496 0
856 347 349 -4494 4496 0
856 -347 349 -4494 -4496 0
856 347 349 4494 -4496 0
856 -347 -349 -4494 4496 0
856 347 -349 4494 4496 0
856 -367 -369 4488 -4490 0
856 -367 369 4488 4490 0
856 367 -369 -4488 -4490 0
856 367 369 -4488 4490 0
856 -367 369 -4488 -4490 0
856 367 369 4488 -4490 0
856 -367 -369 -4488 4490 0
856 367 -369 4488 4490 0
856 -135 -147 2702 -2704 0
856 -135 147 2702 2704 0
856 135 -147 -2702 -2704 0
856 135 147 -2702 2704 0
856 -135 147 -2702 -2704 0
856 135 147 2702 -2704 0
856 -135 -147 -2702 2704 0
856 135 -147 2702 2704 0
856 -59 -102 3805 -3807 0
856 -59 102 3805 3807 0
856 59 -102 -3805 -3807 0
856 59 102 -3805 3807 0
856 -59 102 -3805 -3807 0
856 59 102 3805 -3807 0
856 -59 -102 -3805 3807 0
856 59 -102 3805 3807 0
856 357 -403 -455 -1904 0
856 357 -403 455 1904 0
856 -357 403 -455 -1904 0
856 -357 403 455 1904 0
856 -357 -403 455 -1904 0
856 357 403 455 -1904 0
856 -357 -403 -455 1904 0
856 357 403 -455 1904 0
856 -395 -400 4954 -4956 0
856 -395 400 4954 4956 0
856 395 -400 -4954 -4956 0
856 395 400 -4954 4956 0
856 -395 400 -4954 -4956 0
856 395 400 4954 -4956 0
856 -395 -400 -4954 4956 0
856 395 -400 4954 4956 0
856 -354 -357 4498 -4500 0
856 -354 357 4498 4500 0
856 354 -357 -4498 -4500 0
856 354 357 -4498 4500 0
856 -354 357 -4498 -4500 0
856 354 357 4498 -4500 0
856 -354 -357 -4498 4500 0
856 354 -357 4498 4500 0
856 -9 -10 3800 -3802 0
856 -9 10 3800 3802 0
856 9 -10 -3800 -3802 0
856 9 10 -3800 3802 0
856 -9 10 -3800 -3802 0
856 9 10 3800 -3802 0
856 -9 -10 -3800 3802 0
856 9 -10 3800 3802 0
856 -455 -456 5409 -5411 0
856 -455 456 5409 5411 0
856 455 -456 -5409 -5411 0
856 455 456 -5409 5411 0
856 -455 456 -5409 -5411 0
856 455 456 5409 -5411 0
856 -455 -456 -5409 5411 0
856 455 -456 5409 5411 0
856 -365 -366 4502 -4504 0
856 -365 366 4502 4504 0
856 365 -366 -4502 -4504 0
856 365 366 -4502 4504 0
856 -365 366 -4502 -4504 0
856 365 366 4502 -4504 0
856 -365 -366 -4502 4504 0
856 365 -366 4502 4504 0
856 1 -3 -4 -3800 0
856 1 -3 4 3800 0
856 -1 3 -4 -3800 0
856 -1 3 4 3800 0
856 -1 -3 4 -3800 0
856 1 3 4 -3800 0
856 -1 -3 -4 3800 0
856 1 3 -4 3800 0
856 -541 -657 1898 -1900 0
856 -541 657 1898 1900 0
856 541 -657 -1898 -1900 0
856 541 657 -1898 1900 0
856 -541 657 -1898 -1900 0
856 541 657 1898 -1900 0
856 -541 -657 -1898 1900 0
856 541 -657 1898 1900 0
856 -402 -405 4957 -4959 0
856 -402 405 4957 4959 0
856 402 -405 -4957 -4959 0
856 402 405 -4957 4959 0
856 -402 405 -4957 -4959 0
856 402 405 4957 -4959 0
856 -402 -405 -4957 4959 0
856 402 -405 4957 4959 0
856 -101 -103 3792 -3794 0
856 -101 103 3792 3794 0
856 101 -103 -3792 -3794 0
856 101 103 -3792 3794 0
856 -101 103 -3792 -3794 0
856 101 103 3792 -3794 0
856 -101 -103 -3792 3794 0
856 101 -103 3792 3794 0
856 346 -392 -444 -1897 0
856 346 -392 444 1897 0
856 -346 392 -444 -1897 0
856 -346 392 444 1897 0
856 -346 -392 444 -1897 0
856 346 392 444 -1897 0
856 -346 -392 -444 1897 0
856 346 392 -444 1897 0
856 10 -19 -23 -2254 0
856 10 -19 23 2254 0
856 -10 19 -23 -2254 0
856 -10 19 23 2254 0
856 -10 -19 23 -2254 0
856 10 19 23 -2254 0
856 -10 -19 -23 2254 0
856 10 19 -23 2254 0
856 -94 -267 2472 -2474 0
856 -94 267 2472 2474 0
856 94 -267 -2472 -2474 0
856 94 267 -2472 2474 0
856 -94 267 -2472 -2474 0
856 94 267 2472 -2474 0
856 -94 -267 -2472 2474 0
856 94 -267 2472 2474 0
856 -51 -52 3788 -3790 0
856 -51 52 3788 3790 0
856 51 -52 -3788 -3790 0
856 51 52 -3788 3790 0
856 -51 52 -3788 -3790 0
856 51 52 3788 -3790 0
856 -51 -52 -3788 3790 0
856 51 -52 3788 3790 0
856 -344 -349 4510 -4512 0
856 -344 349 4510 4512 0
856 344 -349 -4510 -4512 0
856 344 349 -4510 4512 0
856 -344 349 -4510 -4512 0
856 344 349 4510 -4512 0
856 -344 -349 -4510 4512 0
856 344 -349 4510 4512 0
856 -362 -363 4546 -4548 0
856 -362 363 4546 4548 0
856 362 -363 -4546 -4548 0
856 362 363 -4546 4548 0
856 -362 363 -4546 -4548 0
856 362 363 4546 -4548 0
856 -362 -363 -4546 4548 0
856 362 -363 4546 4548 0
856 -415 -419 4948 -4950 0
856 -415 419 4948 4950 0
856 415 -419 -4948 -4950 0
856 415 419 -4948 4950 0
856 -415 419 -4948 -4950 0
856 415 419 4948 -4950 0
856 -415 -419 -4948 4950 0
856 415 -419 4948 4950 0
856 2 -3 -8 -3786 0
856 2 -3 8 3786 0
856 -2 3 -8 -3786 0
856 -2 3 8 3786 0
856 -2 -3 8 -3786 0
856 2 3 8 -3786 0
856 -2 -3 -8 3786 0
856 2 3 -8 3786 0
856 -550 -656 1891 -1893 0
856 -550 656 1891 1893 0
856 550 -656 -1891 -1893 0
856 550 656 -1891 1893 0
856 -550 656 -1891 -1893 0
856 550 656 1891 -1893 0
856 -550 -656 -1891 1893 0
856 550 -656 1891 1893 0
856 -365 -369 4518 -4520 0
856 -365 369 4518 4520 0
856 365 -369 -4518 -4520 0
856 365 369 -4518 4520 0
856 -365 369 -4518 -4520 0
856 365 369 4518 -4520 0
856 -365 -369 -4518 4520 0
856 365 -369 4518 4520 0
856 -106 -108 3779 -3781 0
856 -106 108 3779 3781 0
856 106 -108 -3779 -3781 0
856 106 108 -3779 3781 0
856 -106 108 -3779 -3781 0
856 106 108 3779 -3781 0
856 -106 -108 -3779 3781 0
856 106 -108 3779 3781 0
856 -353 -355 4513 -4515 0
856 -353 355 4513 4515 0
856 353 -355 -4513 -4515 0
856 353 355 -4513 4515 0
856 -353 355 -4513 -4515 0
856 353 355 4513 -4515 0
856 -353 -355 -4513 4515 0
856 353 -355 4513 4515 0
856 -361 -364 4516 -4518 0
856 -361 364 4516 4518 0
856 361 -364 -4516 -4518 0
856 361 364 -4516 4518 0
856 -361 364 -4516 -4518 0
856 361 364 4516 -4518 0
856 -361 -364 -4516 4518 0
856 361 -364 4516 4518 0
856 -24 -32 2260 -2262 0
856 -24 32 2260 2262 0
856 24 -32 -2260 -2262 0
856 24 32 -2260 2262 0
856 -24 32 -2260 -2262 0
856 24 32 2260 -2262 0
856 -24 -32 -2260 2262 0
856 24 -32 2260 2262 0
856 -348 -349 4524 -4526 0
856 -348 349 4524 4526 0
856 348 -349 -4524 -4526 0
856 348 349 -4524 4526 0
856 -348 349 -4524 -4526 0
856 348 349 4524 -4526 0
856 -348 -349 -4524 4526 0
856 348 -349 4524 4526 0
856 -353 -354 4526 -4528 0
856 -353 354 4526 4528 0
856 353 -354 -4526 -4528 0
856 353 354 -4526 4528 0
856 -353 354 -4526 -4528 0
856 353 354 4526 -4528 0
856 -353 -354 -4526 4528 0
856 353 -354 4526 4528 0
856 -368 -369 4534 -4536 0
856 -368 369 4534 4536 0
856 368 -369 -4534 -4536 0
856 368 369 -4534 4536 0
856 -368 369 -4534 -4536 0
856 368 369 4534 -4536 0
856 -368 -369 -4534 4536 0
856 368 -369 4534 4536 0
856 -359 -361 4529 -4531 0
856 -359 361 4529 4531 0
856 359 -361 -4529 -4531 0
856 359 361 -4529 4531 0
856 -359 361 -4529 -4531 0
856 359 361 4529 -4531 0
856 -359 -361 -4529 4531 0
856 359 -361 4529 4531 0
856 -56 -58 3773 -3775 0
856 -56 58 3773 3775 0
856 56 -58 -3773 -3775 0
856 56 58 -3773 3775 0
856 -56 58 -3773 -3775 0
856 56 58 3773 -3775 0
856 -56 -58 -3773 3775 0
856 56 -58 3773 3775 0
856 -25 -33 2267 -2269 0
856 -25 33 2267 2269 0
856 25 -33 -2267 -2269 0
856 25 33 -2267 2269 0
856 -25 33 -2267 -2269 0
856 25 33 2267 -2269 0
856 -25 -33 -2267 2269 0
856 25 -33 2267 2269 0
856 -54 -55 3771 -3773 0
856 -54 55 3771 3773 0
856 54 -55 -3771 -3773 0
856 54 55 -3771 3773 0
856 -54 55 -3771 -3773 0
856 54 55 3771 -3773 0
856 -54 -55 -3771 3773 0
856 54 -55 3771 3773 0
856 -348 -351 4541 -4543 0
856 -348 351 4541 4543 0
856 348 -351 -4541 -4543 0
856 348 351 -4541 4543 0
856 -348 351 -4541 -4543 0
856 348 351 4541 -4543 0
856 -348 -351 -4541 4543 0
856 348 -351 4541 4543 0
856 -8 -9 3768 -3770 0
856 -8 9 3768 3770 0
856 8 -9 -3768 -3770 0
856 8 9 -3768 3770 0
856 -8 9 -3768 -3770 0
856 8 9 3768 -3770 0
856 -8 -9 -3768 3770 0
856 8 -9 3768 3770 0
856 -499 -549 1883 -1885 0
856 -499 549 1883 1885 0
856 499 -549 -1883 -1885 0
856 499 549 -1883 1885 0
856 -499 549 -1883 -1885 0
856 499 549 1883 -1885 0
856 -499 -549 -1883 1885 0
856 499 -549 1883 1885 0
856 341 -342 -343 -4540 0
856 341 -342 343 4540 0
856 -341 342 -343 -4540 0
856 -341 342 343 4540 0
856 -341 -342 343 -4540 0
856 341 342 343 -4540 0
856 -341 -342 -343 4540 0
856 341 342 -343 4540 0
856 -405 -409 4944 -4946 0
856 -405 409 4944 4946 0
856 405 -409 -4944 -4946 0
856 405 409 -4944 4946 0
856 -405 409 -4944 -4946 0
856 405 409 4944 -4946 0
856 -405 -409 -4944 4946 0
856 405 -409 4944 4946 0
856 -549 -598 1135 -1137 0
856 -549 598 1135 1137 0
856 549 -598 -1135 -1137 0
856 549 598 -1135 1137 0
856 -549 598 -1135 -1137 0
856 549 598 1135 -1137 0
856 -549 -598 -1135 1137 0
856 549 -598 1135 1137 0
856 -364 -366 4548 -4550 0
856 -364 366 4548 4550 0
856 364 -366 -4548 -4550 0
856 364 366 -4548 4550 0
856 -364 366 -4548 -4550 0
856 364 366 4548 -4550 0
856 -364 -366 -4548 4550 0
856 364 -366 4548 4550 0
856 -353 -354 4559 -4561 0
856 -353 354 4559 4561 0
856 353 -354 -4559 -4561 0
856 353 354 -4559 4561 0
856 -353 354 -4559 -4561 0
856 353 354 4559 -4561 0
856 -353 -354 -4559 4561 0
856 353 -354 4559 4561 0
856 -349 -351 4557 -4559 0
856 -349 351 4557 4559 0
856 349 -351 -4557 -4559 0
856 349 351 -4557 4559 0
856 -349 351 -4557 -4559 0
856 349 351 4557 -4559 0
856 -349 -351 -4557 4559 0
856 349 -351 4557 4559 0
856 -101 -102 3760 -3762 0
856 -101 102 3760 3762 0
856 101 -102 -3760 -3762 0
856 101 102 -3760 3762 0
856 -101 102 -3760 -3762 0
856 101 102 3760 -3762 0
856 -101 -102 -3760 3762 0
856 101 -102 3760 3762 0
856 -358 -361 4563 -4565 0
856 -358 361 4563 4565 0
856 358 -361 -4563 -4565 0
856 358 361 -4563 4565 0
856 -358 361 -4563 -4565 0
856 358 361 4563 -4565 0
856 -358 -361 -4563 4565 0
856 358 -361 4563 4565 0
856 104 -113 -127 -2702 0
856 104 -113 127 2702 0
856 -104 113 -127 -2702 0
856 -104 113 127 2702 0
856 -104 -113 127 -2702 0
856 104 113 127 -2702 0
856 -104 -113 -127 2702 0
856 104 113 -127 2702 0
856 -55 -57 3757 -3759 0
856 -55 57 3757 3759 0
856 55 -57 -3757 -3759 0
856 55 57 -3757 3759 0
856 -55 57 -3757 -3759 0
856 55 57 3757 -3759 0
856 -55 -57 -3757 3759 0
856 55 -57 3757 3759 0
856 -53 -54 3755 -3757 0
856 -53 54 3755 3757 0
856 53 -54 -3755 -3757 0
856 53 54 -3755 3757 0
856 -53 54 -3755 -3757 0
856 53 54 3755 -3757 0
856 -53 -54 -3755 3757 0
856 53 -54 3755 3757 0
856 -348 -349 4572 -4574 0
856 -348 349 4572 4574 0
856 348 -349 -4572 -4574 0
856 348 349 -4572 4574 0
856 -348 349 -4572 -4574 0
856 348 349 4572 -4574 0
856 -348 -349 -4572 4574 0
856 348 -349 4572 4574 0
856 -5 -9 3752 -3754 0
856 -5 9 3752 3754 0
856 5 -9 -3752 -3754 0
856 5 9 -3752 3754 0
856 -5 9 -3752 -3754 0
856 5 9 3752 -3754 0
856 -5 -9 -3752 3754 0
856 5 -9 3752 3754 0
856 -441 -498 1875 -1877 0
856 -441 498 1875 1877 0
856 441 -498 -1875 -1877 0
856 441 498 -1875 1877 0
856 -441 498 -1875 -1877 0
856 441 498 1875 -1877 0
856 -441 -498 -1875 1877 0
856 441 -498 1875 1877 0
856 -444 -445 5403 -5405 0
856 -444 445 5403 5405 0
856 444 -445 -5403 -5405 0
856 444 445 -5403 5405 0
856 -444 445 -5403 -5405 0
856 444 445 5403 -5405 0
856 -444 -445 -5403 5405 0
856 444 -445 5403 5405 0
856 -350 -351 4591 -4593 0
856 -350 351 4591 4593 0
856 350 -351 -4591 -4593 0
856 350 351 -4591 4593 0
856 -350 351 -4591 -4593 0
856 350 351 4591 -4593 0
856 -350 -351 -4591 4593 0
856 350 -351 4591 4593 0
856 -355 -356 4576 -4578 0
856 -355 356 4576 4578 0
856 355 -356 -4576 -4578 0
856 355 356 -4576 4578 0
856 -355 356 -4576 -4578 0
856 355 356 4576 -4578 0
856 -355 -356 -4576 4578 0
856 355 -356 4576 4578 0
856 6 -15 -29 -2296 0
856 6 -15 29 2296 0
856 -6 15 -29 -2296 0
856 -6 15 29 2296 0
856 -6 -15 29 -2296 0
856 6 15 29 -2296 0
856 -6 -15 -29 2296 0
856 6 15 -29 2296 0
856 -104 -106 3744 -3746 0
856 -104 106 3744 3746 0
856 104 -106 -3744 -3746 0
856 104 106 -3744 3746 0
856 -104 106 -3744 -3746 0
856 104 106 3744 -3746 0
856 -104 -106 -3744 3746 0
856 104 -106 3744 3746 0
856 -361 -364 4580 -4582 0
856 -361 364 4580 4582 0
856 361 -364 -4580 -4582 0
856 361 364 -4580 4582 0
856 -361 364 -4580 -4582 0
856 361 364 4580 -4582 0
856 -361 -364 -4580 4582 0
856 361 -364 4580 4582 0
856 -45 -270 2269 -2271 0
856 -45 270 2269 2271 0
856 45 -270 -2269 -2271 0
856 45 270 -2269 2271 0
856 -45 270 -2269 -2271 0
856 45 270 2269 -2271 0
856 -45 -270 -2269 2271 0
856 45 -270 2269 2271 0
856 -368 -369 4584 -4586 0
856 -368 369 4584 4586 0
856 368 -369 -4584 -4586 0
856 368 369 -4584 4586 0
856 -368 369 -4584 -4586 0
856 368 369 4584 -4586 0
856 -368 -369 -4584 4586 0
856 368 -369 4584 4586 0
856 -59 -102 3741 -3743 0
856 -59 102 3741 3743 0
856 59 -102 -3741 -3743 0
856 59 102 -3741 3743 0
856 -59 102 -3741 -3743 0
856 59 102 3741 -3743 0
856 -59 -102 -3741 3743 0
856 59 -102 3741 3743 0
856 -547 -653 1870 -1872 0
856 -547 653 1870 1872 0
856 547 -653 -1870 -1872 0
856 547 653 -1870 1872 0
856 -547 653 -1870 -1872 0
856 547 653 1870 -1872 0
856 -547 -653 -1870 1872 0
856 547 -653 1870 1872 0
856 -55 -58 3739 -3741 0
856 -55 58 3739 3741 0
856 55 -58 -3739 -3741 0
856 55 58 -3739 3741 0
856 -55 58 -3739 -3741 0
856 55 58 3739 -3741 0
856 -55 -58 -3739 3741 0
856 55 -58 3739 3741 0
856 -411 -413 5395 -5397 0
856 -411 413 5395 5397 0
856 411 -413 -5395 -5397 0
856 411 413 -5395 5397 0
856 -411 413 -5395 -5397 0
856 411 413 5395 -5397 0
856 -411 -413 -5395 5397 0
856 411 -413 5395 5397 0
856 -4 -8 3736 -3738 0
856 -4 8 3736 3738 0
856 4 -8 -3736 -3738 0
856 4 8 -3736 3738 0
856 -4 8 -3736 -3738 0
856 4 8 3736 -3738 0
856 -4 -8 -3736 3738 0
856 4 -8 3736 3738 0
856 342 -398 -450 -1869 0
856 342 -398 450 1869 0
856 -342 398 -450 -1869 0
856 -342 398 450 1869 0
856 -342 -398 450 -1869 0
856 342 398 450 -1869 0
856 -342 -398 -450 1869 0
856 342 398 -450 1869 0
856 -354 -358 4594 -4596 0
856 -354 358 4594 4596 0
856 354 -358 -4594 -4596 0
856 354 358 -4594 4596 0
856 -354 358 -4594 -4596 0
856 354 358 4594 -4596 0
856 -354 -358 -4594 4596 0
856 354 -358 4594 4596 0
856 -30 -38 2302 -2304 0
856 -30 38 2302 2304 0
856 30 -38 -2302 -2304 0
856 30 38 -2302 2304 0
856 -30 38 -2302 -2304 0
856 30 38 2302 -2304 0
856 -30 -38 -2302 2304 0
856 30 -38 2302 2304 0
856 -364 -368 4598 -4600 0
856 -364 368 4598 4600 0
856 364 -368 -4598 -4600 0
856 364 368 -4598 4600 0
856 -364 368 -4598 -4600 0
856 364 368 4598 -4600 0
856 -364 -368 -4598 4600 0
856 364 -368 4598 4600 0
856 -132 -134 3728 -3730 0
856 -132 134 3728 3730 0
856 132 -134 -3728 -3730 0
856 132 134 -3728 3730 0
856 -132 134 -3728 -3730 0
856 132 134 3728 -3730 0
856 -132 -134 -3728 3730 0
856 132 -134 3728 3730 0
856 -546 -652 1863 -1865 0
856 -546 652 1863 1865 0
856 546 -652 -1863 -1865 0
856 546 652 -1863 1865 0
856 -546 652 -1863 -1865 0
856 546 652 1863 -1865 0
856 -546 -652 -1863 1865 0
856 546 -652 1863 1865 0
856 -344 -349 4603 -4605 0
856 -344 349 4603 4605 0
856 344 -349 -4603 -4605 0
856 344 349 -4603 4605 0
856 -344 349 -4603 -4605 0
856 344 349 4603 -4605 0
856 -344 -349 -4603 4605 0
856 344 -349 4603 4605 0
856 -37 -81 3723 -3725 0
856 -37 81 3723 3725 0
856 37 -81 -3723 -3725 0
856 37 81 -3723 3725 0
856 -37 81 -3723 -3725 0
856 37 81 3723 -3725 0
856 -37 -81 -3723 3725 0
856 37 -81 3723 3725 0
856 375 -427 -480 -1351 0
856 375 -427 480 1351 0
856 -375 427 -480 -1351 0
856 -375 427 480 1351 0
856 -375 -427 480 -1351 0
856 375 427 480 -1351 0
856 -375 -427 -480 1351 0
856 375 427 -480 1351 0
856 341 -346 -347 -4524 0
856 341 -346 347 4524 0
856 -341 346 -347 -4524 0
856 -341 346 347 4524 0
856 -341 -346 347 -4524 0
856 341 346 347 -4524 0
856 -341 -346 -347 4524 0
856 341 346 -347 4524 0
856 -35 -36 3721 -3723 0
856 -35 36 3721 3723 0
856 35 -36 -3721 -3723 0
856 35 36 -3721 3723 0
856 -35 36 -3721 -3723 0
856 35 36 3721 -3723 0
856 -35 -36 -3721 3723 0
856 35 -36 3721 3723 0
856 -405 -406 4755 -4757 0
856 -405 406 4755 4757 0
856 405 -406 -4755 -4757 0
856 405 406 -4755 4757 0
856 -405 406 -4755 -4757 0
856 405 406 4755 -4757 0
856 -405 -406 -4755 4757 0
856 405 -406 4755 4757 0
856 -355 -357 4640 -4642 0
856 -355 357 4640 4642 0
856 355 -357 -4640 -4642 0
856 355 357 -4640 4642 0
856 -355 357 -4640 -4642 0
856 355 357 4640 -4642 0
856 -355 -357 -4640 4642 0
856 355 -357 4640 4642 0
856 -355 -357 4622 -4624 0
856 -355 357 4622 4624 0
856 355 -357 -4622 -4624 0
856 355 357 -4622 4624 0
856 -355 357 -4622 -4624 0
856 355 357 4622 -4624 0
856 -355 -357 -4622 4624 0
856 355 -357 4622 4624 0
856 -133 -136 3715 -3717 0
856 -133 136 3715 3717 0
856 133 -136 -3715 -3717 0
856 133 136 -3715 3717 0
856 -133 136 -3715 -3717 0
856 133 136 3715 -3717 0
856 -133 -136 -3715 3717 0
856 133 -136 3715 3717 0
856 -364 -365 4611 -4613 0
856 -364 365 4611 4613 0
856 364 -365 -4611 -4613 0
856 364 365 -4611 4613 0
856 -364 365 -4611 -4613 0
856 364 365 4611 -4613 0
856 -364 -365 -4611 4613 0
856 364 -365 4611 4613 0
856 -355 -359 4608 -4610 0
856 -355 359 4608 4610 0
856 355 -359 -4608 -4610 0
856 355 359 -4608 4610 0
856 -355 359 -4608 -4610 0
856 355 359 4608 -4610 0
856 -355 -359 -4608 4610 0
856 355 -359 4608 4610 0
856 -399 -400 4940 -4942 0
856 -399 400 4940 4942 0
856 399 -400 -4940 -4942 0
856 399 400 -4940 4942 0
856 -399 400 -4940 -4942 0
856 399 400 4940 -4942 0
856 -399 -400 -4940 4942 0
856 399 -400 4940 4942 0
856 -42 -267 2318 -2320 0
856 -42 267 2318 2320 0
856 42 -267 -2318 -2320 0
856 42 267 -2318 2320 0
856 -42 267 -2318 -2320 0
856 42 267 2318 -2320 0
856 -42 -267 -2318 2320 0
856 42 -267 2318 2320 0
856 341 -342 -344 -4618 0
856 341 -342 344 4618 0
856 -341 342 -344 -4618 0
856 -341 342 344 4618 0
856 -341 -342 344 -4618 0
856 341 342 344 -4618 0
856 -341 -342 -344 4618 0
856 341 342 -344 4618 0
856 -351 -352 4620 -4622 0
856 -351 352 4620 4622 0
856 351 -352 -4620 -4622 0
856 351 352 -4620 4622 0
856 -351 352 -4620 -4622 0
856 351 352 4620 -4622 0
856 -351 -352 -4620 4622 0
856 351 -352 4620 4622 0
856 -82 -83 3709 -3711 0
856 -82 83 3709 3711 0
856 82 -83 -3709 -3711 0
856 82 83 -3709 3711 0
856 -82 83 -3709 -3711 0
856 82 83 3709 -3711 0
856 -82 -83 -3709 3711 0
856 82 -83 3709 3711 0
856 -448 -495 1854 -1856 0
856 -448 495 1854 1856 0
856 448 -495 -1854 -1856 0
856 448 495 -1854 1856 0
856 -448 495 -1854 -1856 0
856 448 495 1854 -1856 0
856 -448 -495 -1854 1856 0
856 448 -495 1854 1856 0
856 -40 -81 3707 -3709 0
856 -40 81 3707 3709 0
856 40 -81 -3707 -3709 0
856 40 81 -3707 3709 0
856 -40 81 -3707 -3709 0
856 40 81 3707 -3709 0
856 -40 -81 -3707 3709 0
856 40 -81 3707 3709 0
856 -349 -351 4679 -4681 0
856 -349 351 4679 4681 0
856 349 -351 -4679 -4681 0
856 349 351 -4679 4681 0
856 -349 351 -4679 -4681 0
856 349 351 4679 -4681 0
856 -349 -351 -4679 4681 0
856 349 -351 4679 4681 0
856 32 -37 -38 -3706 0
856 32 -37 38 3706 0
856 -32 37 -38 -3706 0
856 -32 37 38 3706 0
856 -32 -37 38 -3706 0
856 32 37 38 -3706 0
856 -32 -37 -38 3706 0
856 32 37 -38 3706 0
856 -367 -368 4629 -4631 0
856 -367 368 4629 4631 0
856 367 -368 -4629 -4631 0
856 367 368 -4629 4631 0
856 -367 368 -4629 -4631 0
856 367 368 4629 -4631 0
856 -367 -368 -4629 4631 0
856 367 -368 4629 4631 0
856 -358 -359 4624 -4626 0
856 -358 359 4624 4626 0
856 358 -359 -4624 -4626 0
856 358 359 -4624 4626 0
856 -358 359 -4624 -4626 0
856 358 359 4624 -4626 0
856 -358 -359 -4624 4626 0
856 358 -359 4624 4626 0
856 -362 -364 4627 -4629 0
856 -362 364 4627 4629 0
856 362 -364 -4627 -4629 0
856 362 364 -4627 4629 0
856 -362 364 -4627 -4629 0
856 362 364 4627 -4629 0
856 -362 -364 -4627 4629 0
856 362 -364 4627 4629 0
856 -126 -127 3700 -3702 0
856 -126 127 3700 3702 0
856 126 -127 -3700 -3702 0
856 126 127 -3700 3702 0
856 -126 127 -3700 -3702 0
856 126 127 3700 -3702 0
856 -126 -127 -3700 3702 0
856 126 -127 3700 3702 0
856 -351 -354 4638 -4640 0
856 -351 354 4638 4640 0
856 351 -354 -4638 -4640 0
856 351 354 -4638 4640 0
856 -351 354 -4638 -4640 0
856 351 354 4638 -4640 0
856 -351 -354 -4638 4640 0
856 351 -354 4638 4640 0
856 -78 -79 3696 -3698 0
856 -78 79 3696 3698 0
856 78 -79 -3696 -3698 0
856 78 79 -3696 3698 0
856 -78 79 -3696 -3698 0
856 78 79 3696 -3698 0
856 -78 -79 -3696 3698 0
856 78 -79 3696 3698 0
856 -447 -494 1847 -1849 0
856 -447 494 1847 1849 0
856 447 -494 -1847 -1849 0
856 447 494 -1847 1849 0
856 -447 494 -1847 -1849 0
856 447 494 1847 -1849 0
856 -447 -494 -1847 1849 0
856 447 -494 1847 1849 0
856 -345 -346 4636 -4638 0
856 -345 346 4636 4638 0
856 345 -346 -4636 -4638 0
856 345 346 -4636 4638 0
856 -345 346 -4636 -4638 0
856 345 346 4636 -4638 0
856 -345 -346 -4636 4638 0
856 345 -346 4636 4638 0
856 342 -343 -344 -4650 0
856 342 -343 344 4650 0
856 -342 343 -344 -4650 0
856 -342 343 344 4650 0
856 -342 -343 344 -4650 0
856 342 343 344 -4650 0
856 -342 -343 -344 4650 0
856 342 343 -344 4650 0
856 -72 -73 3693 -3695 0
856 -72 73 3693 3695 0
856 72 -73 -3693 -3695 0
856 72 73 -3693 3695 0
856 -72 73 -3693 -3695 0
856 72 73 3693 -3695 0
856 -72 -73 -3693 3695 0
856 72 -73 3693 3695 0
856 -361 -364 4642 -4644 0
856 -361 364 4642 4644 0
856 361 -364 -4642 -4644 0
856 361 364 -4642 4644 0
856 -361 364 -4642 -4644 0
856 361 364 4642 -4644 0
856 -361 -364 -4642 4644 0
856 361 -364 4642 4644 0
856 -30 -71 3691 -3693 0
856 -30 71 3691 3693 0
856 30 -71 -3691 -3693 0
856 30 71 -3691 3693 0
856 -30 71 -3691 -3693 0
856 30 71 3691 -3693 0
856 -30 -71 -3691 3693 0
856 30 -71 3691 3693 0
856 -365 -367 4657 -4659 0
856 -365 367 4657 4659 0
856 365 -367 -4657 -4659 0
856 365 367 -4657 4659 0
856 -365 367 -4657 -4659 0
856 365 367 4657 -4659 0
856 -365 -367 -4657 4659 0
856 365 -367 4657 4659 0
856 22 -27 -28 -3690 0
856 22 -27 28 3690 0
856 -22 27 -28 -3690 0
856 -22 27 28 3690 0
856 -22 -27 28 -3690 0
856 22 27 28 -3690 0
856 -22 -27 -28 3690 0
856 22 27 -28 3690 0
856 -347 -352 4651 -4653 0
856 -347 352 4651 4653 0
856 347 -352 -4651 -4653 0
856 347 352 -4651 4653 0
856 -347 352 -4651 -4653 0
856 347 352 4651 -4653 0
856 -347 -352 -4651 4653 0
856 347 -352 4651 4653 0
856 -114 -115 3683 -3685 0
856 -114 115 3683 3685 0
856 114 -115 -3683 -3685 0
856 114 115 -3683 3685 0
856 -114 115 -3683 -3685 0
856 114 115 3683 -3685 0
856 -114 -115 -3683 3685 0
856 114 -115 3683 3685 0
856 -543 -659 1842 -1844 0
856 -543 659 1842 1844 0
856 543 -659 -1842 -1844 0
856 543 659 -1842 1844 0
856 -543 659 -1842 -1844 0
856 543 659 1842 -1844 0
856 -543 -659 -1842 1844 0
856 543 -659 1842 1844 0
856 8 -14 -26 -2331 0
856 8 -14 26 2331 0
856 -8 14 -26 -2331 0
856 -8 14 26 2331 0
856 -8 -14 26 -2331 0
856 8 14 26 -2331 0
856 -8 -14 -26 2331 0
856 8 14 -26 2331 0
856 -358 -362 4655 -4657 0
856 -358 362 4655 4657 0
856 358 -362 -4655 -4657 0
856 358 362 -4655 4657 0
856 -358 362 -4655 -4657 0
856 358 362 4655 -4657 0
856 -358 -362 -4655 4657 0
856 358 -362 4655 4657 0
856 -63 -65 3679 -3681 0
856 -63 65 3679 3681 0
856 63 -65 -3679 -3681 0
856 63 65 -3679 3681 0
856 -63 65 -3679 -3681 0
856 63 65 3679 -3681 0
856 -63 -65 -3679 3681 0
856 63 -65 3679 3681 0
856 -353 -356 4666 -4668 0
856 -353 356 4666 4668 0
856 353 -356 -4666 -4668 0
856 353 356 -4666 4668 0
856 -353 356 -4666 -4668 0
856 353 356 4666 -4668 0
856 -353 -356 -4666 4668 0
856 353 -356 4666 4668 0
856 -33 -43 2331 -2333 0
856 -33 43 2331 2333 0
856 33 -43 -2331 -2333 0
856 33 43 -2331 2333 0
856 -33 43 -2331 -2333 0
856 33 43 2331 -2333 0
856 -33 -43 -2331 2333 0
856 33 -43 2331 2333 0
856 -19 -62 3677 -3679 0
856 -19 62 3677 3679 0
856 19 -62 -3677 -3679 0
856 19 62 -3677 3679 0
856 -19 62 -3677 -3679 0
856 19 62 3677 -3679 0
856 -19 -62 -3677 3679 0
856 19 -62 3677 3679 0
856 343 -344 -345 -4664 0
856 343 -344 345 4664 0
856 -343 344 -345 -4664 0
856 -343 344 345 4664 0
856 -343 -344 345 -4664 0
856 343 344 345 -4664 0
856 -343 -344 -345 4664 0
856 343 344 -345 4664 0
856 -347 -348 4664 -4666 0
856 -347 348 4664 4666 0
856 347 -348 -4664 -4666 0
856 347 348 -4664 4666 0
856 -347 348 -4664 -4666 0
856 347 348 4664 -4666 0
856 -347 -348 -4664 4666 0
856 347 -348 4664 4666 0
856 -44 -269 2262 -2264 0
856 -44 269 2262 2264 0
856 44 -269 -2262 -2264 0
856 44 269 -2262 2264 0
856 -44 269 -2262 -2264 0
856 44 269 2262 -2264 0
856 -44 -269 -2262 2264 0
856 44 -269 2262 2264 0
856 11 -12 -13 -3676 0
856 11 -12 13 3676 0
856 -11 12 -13 -3676 0
856 -11 12 13 3676 0
856 -11 -12 13 -3676 0
856 11 12 13 -3676 0
856 -11 -12 -13 3676 0
856 11 12 -13 3676 0
856 344 -345 -346 -4678 0
856 344 -345 346 4678 0
856 -344 345 -346 -4678 0
856 -344 345 346 4678 0
856 -344 -345 346 -4678 0
856 344 345 346 -4678 0
856 -344 -345 -346 4678 0
856 344 345 -346 4678 0
856 -363 -366 4670 -4672 0
856 -363 366 4670 4672 0
856 363 -366 -4670 -4672 0
856 363 366 -4670 4672 0
856 -363 366 -4670 -4672 0
856 363 366 4670 -4672 0
856 -363 -366 -4670 4672 0
856 363 -366 4670 4672 0
856 -115 -116 3668 -3670 0
856 -115 116 3668 3670 0
856 115 -116 -3668 -3670 0
856 115 116 -3668 3670 0
856 -115 116 -3668 -3670 0
856 115 116 3668 -3670 0
856 -115 -116 -3668 3670 0
856 115 -116 3668 3670 0
856 -492 -542 1834 -1836 0
856 -492 542 1834 1836 0
856 492 -542 -1834 -1836 0
856 492 542 -1834 1836 0
856 -492 542 -1834 -1836 0
856 492 542 1834 -1836 0
856 -492 -542 -1834 1836 0
856 492 -542 1834 1836 0
856 -361 -362 4686 -4688 0
856 -361 362 4686 4688 0
856 361 -362 -4686 -4688 0
856 361 362 -4686 4688 0
856 -361 362 -4686 -4688 0
856 361 362 4686 -4688 0
856 -361 -362 -4686 4688 0
856 361 -362 4686 4688 0
856 -352 -353 4681 -4683 0
856 -352 353 4681 4683 0
856 352 -353 -4681 -4683 0
856 352 353 -4681 4683 0
856 -352 353 -4681 -4683 0
856 352 353 4681 -4683 0
856 -352 -353 -4681 4683 0
856 352 -353 4681 4683 0
856 -64 -67 3664 -3666 0
856 -64 67 3664 3666 0
856 64 -67 -3664 -3666 0
856 64 67 -3664 3666 0
856 -64 67 -3664 -3666 0
856 64 67 3664 -3666 0
856 -64 -67 -3664 3666 0
856 64 -67 3664 3666 0
856 347 -393 -445 -1834 0
856 347 -393 445 1834 0
856 -347 393 -445 -1834 0
856 -347 393 445 1834 0
856 -347 -393 445 -1834 0
856 347 393 445 -1834 0
856 -347 -393 -445 1834 0
856 347 393 -445 1834 0
856 349 -391 -444 -1169 0
856 349 -391 444 1169 0
856 -349 391 -444 -1169 0
856 -349 391 444 1169 0
856 -349 -391 444 -1169 0
856 349 391 444 -1169 0
856 -349 -391 -444 1169 0
856 349 391 -444 1169 0
856 -356 -359 4684 -4686 0
856 -356 359 4684 4686 0
856 356 -359 -4684 -4686 0
856 356 359 -4684 4686 0
856 -356 359 -4684 -4686 0
856 356 359 4684 -4686 0
856 -356 -359 -4684 4686 0
856 356 -359 4684 4686 0
856 -17 -19 3660 -3662 0
856 -17 19 3660 3662 0
856 17 -19 -3660 -3662 0
856 17 19 -3660 3662 0
856 -17 19 -3660 -3662 0
856 17 19 3660 -3662 0
856 -17 -19 -3660 3662 0
856 17 -19 3660 3662 0
856 -393 -394 4695 -4697 0
856 -393 394 4695 4697 0
856 393 -394 -4695 -4697 0
856 393 394 -4695 4697 0
856 -393 394 -4695 -4697 0
856 393 394 4695 -4697 0
856 -393 -394 -4695 4697 0
856 393 -394 4695 4697 0
856 -365 -366 4689 -4691 0
856 -365 366 4689 4691 0
856 365 -366 -4689 -4691 0
856 365 366 -4689 4691 0
856 -365 366 -4689 -4691 0
856 365 366 4689 -4691 0
856 -365 -366 -4689 4691 0
856 365 -366 4689 4691 0
856 -393 -394 4715 -4717 0
856 -393 394 4715 4717 0
856 393 -394 -4715 -4717 0
856 393 394 -4715 4717 0
856 -393 394 -4715 -4717 0
856 393 394 4715 -4717 0
856 -393 -394 -4715 4717 0
856 393 -394 4715 4717 0
856 14 -15 -16 -3660 0
856 14 -15 16 3660 0
856 -14 15 -16 -3660 0
856 -14 15 16 3660 0
856 -14 -15 16 -3660 0
856 14 15 16 -3660 0
856 -14 -15 -16 3660 0
856 14 15 -16 3660 0
856 -540 -582 1827 -1829 0
856 -540 582 1827 1829 0
856 540 -582 -1827 -1829 0
856 540 582 -1827 1829 0
856 -540 582 -1827 -1829 0
856 540 582 1827 -1829 0
856 -540 -582 -1827 1829 0
856 540 -582 1827 1829 0
856 -397 -398 4699 -4701 0
856 -397 398 4699 4701 0
856 397 -398 -4699 -4701 0
856 397 398 -4699 4701 0
856 -397 398 -4699 -4701 0
856 397 398 4699 -4701 0
856 -397 -398 -4699 4701 0
856 397 -398 4699 4701 0
856 1 -17 -29 -2352 0
856 1 -17 29 2352 0
856 -1 17 -29 -2352 0
856 -1 17 29 2352 0
856 -1 -17 29 -2352 0
856 1 17 29 -2352 0
856 -1 -17 -29 2352 0
856 1 17 -29 2352 0
856 -69 -112 3651 -3653 0
856 -69 112 3651 3653 0
856 69 -112 -3651 -3653 0
856 69 112 -3651 3653 0
856 -69 112 -3651 -3653 0
856 69 112 3651 -3653 0
856 -69 -112 -3651 3653 0
856 69 -112 3651 3653 0
856 -402 -403 4704 -4706 0
856 -402 403 4704 4706 0
856 402 -403 -4704 -4706 0
856 402 403 -4704 4706 0
856 -402 403 -4704 -4706 0
856 402 403 4704 -4706 0
856 -402 -403 -4704 4706 0
856 402 -403 4704 4706 0
856 -400 -401 4702 -4704 0
856 -400 401 4702 4704 0
856 400 -401 -4702 -4704 0
856 400 401 -4702 4704 0
856 -400 401 -4702 -4704 0
856 400 401 4702 -4704 0
856 -400 -401 -4702 4704 0
856 400 -401 4702 4704 0
856 -406 -407 4708 -4710 0
856 -406 407 4708 4710 0
856 406 -407 -4708 -4710 0
856 406 407 -4708 4710 0
856 -406 407 -4708 -4710 0
856 406 407 4708 -4710 0
856 -406 -407 -4708 4710 0
856 406 -407 4708 4710 0
856 -65 -67 3648 -3650 0
856 -65 67 3648 3650 0
856 65 -67 -3648 -3650 0
856 65 67 -3648 3650 0
856 -65 67 -3648 -3650 0
856 65 67 3648 -3650 0
856 -65 -67 -3648 3650 0
856 65 -67 3648 3650 0
856 -43 -268 2255 -2257 0
856 -43 268 2255 2257 0
856 43 -268 -2255 -2257 0
856 43 268 -2255 2257 0
856 -43 268 -2255 -2257 0
856 43 268 2255 -2257 0
856 -43 -268 -2255 2257 0
856 43 -268 2255 2257 0
856 -411 -412 4723 -4725 0
856 -411 412 4723 4725 0
856 411 -412 -4723 -4725 0
856 411 412 -4723 4725 0
856 -411 412 -4723 -4725 0
856 411 412 4723 -4725 0
856 -411 -412 -4723 4725 0
856 411 -412 4723 4725 0
856 -396 -397 4718 -4720 0
856 -396 397 4718 4720 0
856 396 -397 -4718 -4720 0
856 396 397 -4718 4720 0
856 -396 397 -4718 -4720 0
856 396 397 4718 -4720 0
856 -396 -397 -4718 4720 0
856 396 -397 4718 4720 0
856 -18 -62 3645 -3647 0
856 -18 62 3645 3647 0
856 18 -62 -3645 -3647 0
856 18 62 -3645 3647 0
856 -18 62 -3645 -3647 0
856 18 62 3645 -3647 0
856 -18 -62 -3645 3647 0
856 18 -62 3645 3647 0
856 -15 -16 3643 -3645 0
856 -15 16 3643 3645 0
856 15 -16 -3643 -3645 0
856 15 16 -3643 3645 0
856 -15 16 -3643 -3645 0
856 15 16 3643 -3645 0
856 -15 -16 -3643 3645 0
856 15 -16 3643 3645 0
856 -399 -400 4721 -4723 0
856 -399 400 4721 4723 0
856 399 -400 -4721 -4723 0
856 399 400 -4721 4723 0
856 -399 400 -4721 -4723 0
856 399 400 4721 -4723 0
856 -399 -400 -4721 4723 0
856 399 -400 4721 4723 0
856 -414 -415 4726 -4728 0
856 -414 415 4726 4728 0
856 414 -415 -4726 -4728 0
856 414 415 -4726 4728 0
856 -414 415 -4726 -4728 0
856 414 415 4726 -4728 0
856 -414 -415 -4726 4728 0
856 414 -415 4726 4728 0
856 -111 -112 3636 -3638 0
856 -111 112 3636 3638 0
856 111 -112 -3636 -3638 0
856 111 112 -3636 3638 0
856 -111 112 -3636 -3638 0
856 111 112 3636 -3638 0
856 -111 -112 -3636 3638 0
856 111 -112 3636 3638 0
856 388 -437 -481 -1820 0
856 388 -437 481 1820 0
856 -388 437 -481 -1820 0
856 -388 437 481 1820 0
856 -388 -437 481 -1820 0
856 388 437 481 -1820 0
856 -388 -437 -481 1820 0
856 388 437 -481 1820 0
856 -418 -419 4730 -4732 0
856 -418 419 4730 4732 0
856 418 -419 -4730 -4732 0
856 418 419 -4730 4732 0
856 -418 419 -4730 -4732 0
856 418 419 4730 -4732 0
856 -418 -419 -4730 4732 0
856 418 -419 4730 4732 0
856 -396 -397 4752 -4754 0
856 -396 397 4752 4754 0
856 396 -397 -4752 -4754 0
856 396 397 -4752 4754 0
856 -396 397 -4752 -4754 0
856 396 397 4752 -4754 0
856 -396 -397 -4752 4754 0
856 396 -397 4752 4754 0
856 -64 -66 3632 -3634 0
856 -64 66 3632 3634 0
856 64 -66 -3632 -3634 0
856 64 66 -3632 3634 0
856 -64 66 -3632 -3634 0
856 64 66 3632 -3634 0
856 -64 -66 -3632 3634 0
856 64 -66 3632 3634 0
856 -406 -408 4741 -4743 0
856 -406 408 4741 4743 0
856 406 -408 -4741 -4743 0
856 406 408 -4741 4743 0
856 -406 408 -4741 -4743 0
856 406 408 4741 -4743 0
856 -406 -408 -4741 4743 0
856 406 -408 4741 4743 0
856 -399 -400 4736 -4738 0
856 -399 400 4736 4738 0
856 399 -400 -4736 -4738 0
856 399 400 -4736 4738 0
856 -399 400 -4736 -4738 0
856 399 400 4736 -4738 0
856 -399 -400 -4736 4738 0
856 399 -400 4736 4738 0
856 -17 -61 3629 -3631 0
856 -17 61 3629 3631 0
856 17 -61 -3629 -3631 0
856 17 61 -3629 3631 0
856 -17 61 -3629 -3631 0
856 17 61 3629 -3631 0
856 -17 -61 -3629 3631 0
856 17 -61 3629 3631 0
856 -590 -630 1814 -1816 0
856 -590 630 1814 1816 0
856 590 -630 -1814 -1816 0
856 590 630 -1814 1816 0
856 -590 630 -1814 -1816 0
856 590 630 1814 -1816 0
856 -590 -630 -1814 1816 0
856 590 -630 1814 1816 0
856 -402 -403 4739 -4741 0
856 -402 403 4739 4741 0
856 402 -403 -4739 -4741 0
856 402 403 -4739 4741 0
856 -402 403 -4739 -4741 0
856 402 403 4739 -4741 0
856 -402 -403 -4739 4741 0
856 402 -403 4739 4741 0
856 -413 -416 4745 -4747 0
856 -413 416 4745 4747 0
856 413 -416 -4745 -4747 0
856 413 416 -4745 4747 0
856 -413 416 -4745 -4747 0
856 413 416 4745 -4747 0
856 -413 -416 -4745 4747 0
856 413 -416 4745 4747 0
856 12 -13 -14 -3628 0
856 12 -13 14 3628 0
856 -12 13 -14 -3628 0
856 -12 13 14 3628 0
856 -12 -13 14 -3628 0
856 12 13 14 -3628 0
856 -12 -13 -14 3628 0
856 12 13 -14 3628 0
856 392 -394 -395 -4752 0
856 392 -394 395 4752 0
856 -392 394 -395 -4752 0
856 -392 394 395 4752 0
856 -392 -394 395 -4752 0
856 392 394 395 -4752 0
856 -392 -394 -395 4752 0
856 392 394 -395 4752 0
856 -113 -114 3619 -3621 0
856 -113 114 3619 3621 0
856 113 -114 -3619 -3621 0
856 113 114 -3619 3621 0
856 -113 114 -3619 -3621 0
856 113 114 3619 -3621 0
856 -113 -114 -3619 3621 0
856 113 -114 3619 3621 0
856 341 -342 -343 -4510 0
856 341 -342 343 4510 0
856 -341 342 -343 -4510 0
856 -341 342 343 4510 0
856 -341 -342 343 -4510 0
856 341 342 343 -4510 0
856 -341 -342 -343 4510 0
856 341 342 -343 4510 0
856 -126 -138 2652 -2654 0
856 -126 138 2652 2654 0
856 126 -138 -2652 -2654 0
856 126 138 -2652 2654 0
856 -126 138 -2652 -2654 0
856 126 138 2652 -2654 0
856 -126 -138 -2652 2654 0
856 126 -138 2652 2654 0
856 -396 -398 4830 -4832 0
856 -396 398 4830 4832 0
856 396 -398 -4830 -4832 0
856 396 398 -4830 4832 0
856 -396 398 -4830 -4832 0
856 396 398 4830 -4832 0
856 -396 -398 -4830 4832 0
856 396 -398 4830 4832 0
856 -68 -69 3616 -3618 0
856 -68 69 3616 3618 0
856 68 -69 -3616 -3618 0
856 68 69 -3616 3618 0
856 -68 69 -3616 -3618 0
856 68 69 3616 -3618 0
856 -68 -69 -3616 3618 0
856 68 -69 3616 3618 0
856 -589 -629 1807 -1809 0
856 -589 629 1807 1809 0
856 589 -629 -1807 -1809 0
856 589 629 -1807 1809 0
856 -589 629 -1807 -1809 0
856 589 629 1807 -1809 0
856 -589 -629 -1807 1809 0
856 589 -629 1807 1809 0
856 -413 -415 4790 -4792 0
856 -413 415 4790 4792 0
856 413 -415 -4790 -4792 0
856 413 415 -4790 4792 0
856 -413 415 -4790 -4792 0
856 413 415 4790 -4792 0
856 -413 -415 -4790 4792 0
856 413 -415 4790 4792 0
856 -546 -595 1184 -1186 0
856 -546 595 1184 1186 0
856 546 -595 -1184 -1186 0
856 546 595 -1184 1186 0
856 -546 595 -1184 -1186 0
856 546 595 1184 -1186 0
856 -546 -595 -1184 1186 0
856 546 -595 1184 1186 0
856 -16 -61 3613 -3615 0
856 -16 61 3613 3615 0
856 16 -61 -3613 -3615 0
856 16 61 -3613 3615 0
856 -16 61 -3613 -3615 0
856 16 61 3613 -3615 0
856 -16 -61 -3613 3615 0
856 16 -61 3613 3615 0
856 -408 -412 4757 -4759 0
856 -408 412 4757 4759 0
856 408 -412 -4757 -4759 0
856 408 412 -4757 4759 0
856 -408 412 -4757 -4759 0
856 408 412 4757 -4759 0
856 -408 -412 -4757 4759 0
856 408 -412 4757 4759 0
856 -13 -14 3611 -3613 0
856 -13 14 3611 3613 0
856 13 -14 -3611 -3613 0
856 13 14 -3611 3613 0
856 -13 14 -3611 -3613 0
856 13 14 3611 -3613 0
856 -13 -14 -3611 3613 0
856 13 -14 3611 3613 0
856 60 -66 -78 -2555 0
856 60 -66 78 2555 0
856 -60 66 -78 -2555 0
856 -60 66 78 2555 0
856 -60 -66 78 -2555 0
856 60 66 78 -2555 0
856 -60 -66 -78 2555 0
856 60 66 -78 2555 0
856 -417 -418 4760 -4762 0
856 -417 418 4760 4762 0
856 417 -418 -4760 -4762 0
856 417 418 -4760 4762 0
856 -417 418 -4760 -4762 0
856 417 418 4760 -4762 0
856 -417 -418 -4760 4762 0
856 417 -418 4760 4762 0
856 -413 -415 4772 -4774 0
856 -413 415 4772 4774 0
856 413 -415 -4772 -4774 0
856 413 415 -4772 4774 0
856 -413 415 -4772 -4774 0
856 413 415 4772 -4774 0
856 -413 -415 -4772 4774 0
856 413 -415 4772 4774 0
856 -112 -113 3603 -3605 0
856 -112 113 3603 3605 0
856 112 -113 -3603 -3605 0
856 112 113 -3603 3605 0
856 -112 113 -3603 -3605 0
856 112 113 3603 -3605 0
856 -112 -113 -3603 3605 0
856 112 -113 3603 3605 0
856 -397 -398 4766 -4768 0
856 -397 398 4766 4768 0
856 397 -398 -4766 -4768 0
856 397 398 -4766 4768 0
856 -397 398 -4766 -4768 0
856 397 398 4766 -4768 0
856 -397 -398 -4766 4768 0
856 397 -398 4766 4768 0
856 -407 -409 4770 -4772 0
856 -407 409 4770 4772 0
856 407 -409 -4770 -4772 0
856 407 409 -4770 4772 0
856 -407 409 -4770 -4772 0
856 407 409 4770 -4772 0
856 -407 -409 -4770 4772 0
856 407 -409 4770 4772 0
856 -418 -419 4774 -4776 0
856 -418 419 4774 4776 0
856 418 -419 -4774 -4776 0
856 418 419 -4774 4776 0
856 -418 419 -4774 -4776 0
856 418 419 4774 -4776 0
856 -418 -419 -4774 4776 0
856 418 -419 4774 4776 0
856 -65 -66 3599 -3601 0
856 -65 66 3599 3601 0
856 65 -66 -3599 -3601 0
856 65 66 -3599 3601 0
856 -65 66 -3599 -3601 0
856 65 66 3599 -3601 0
856 -65 -66 -3599 3601 0
856 65 -66 3599 3601 0
856 -398 -399 4780 -4782 0
856 -398 399 4780 4782 0
856 398 -399 -4780 -4782 0
856 398 399 -4780 4782 0
856 -398 399 -4780 -4782 0
856 398 399 4780 -4782 0
856 -398 -399 -4780 4782 0
856 398 -399 4780 4782 0
856 -411 -412 4788 -4790 0
856 -411 412 4788 4790 0
856 411 -412 -4788 -4790 0
856 411 412 -4788 4790 0
856 -411 412 -4788 -4790 0
856 411 412 4788 -4790 0
856 -411 -412 -4788 4790 0
856 411 -412 4788 4790 0
856 -19 -61 3595 -3597 0
856 -19 61 3595 3597 0
856 19 -61 -3595 -3597 0
856 19 61 -3595 3597 0
856 -19 61 -3595 -3597 0
856 19 61 3595 -3597 0
856 -19 -61 -3595 3597 0
856 19 -61 3595 3597 0
856 -488 -536 1798 -1800 0
856 -488 536 1798 1800 0
856 488 -536 -1798 -1800 0
856 488 536 -1798 1800 0
856 -488 536 -1798 -1800 0
856 488 536 1798 -1800 0
856 -488 -536 -1798 1800 0
856 488 -536 1798 1800 0
856 -402 -404 4783 -4785 0
856 -402 404 4783 4785 0
856 402 -404 -4783 -4785 0
856 402 404 -4783 4785 0
856 -402 404 -4783 -4785 0
856 402 404 4783 -4785 0
856 -402 -404 -4783 4785 0
856 402 -404 4783 4785 0
856 -40 -50 2380 -2382 0
856 -40 50 2380 2382 0
856 40 -50 -2380 -2382 0
856 40 50 -2380 2382 0
856 -40 50 -2380 -2382 0
856 40 50 2380 -2382 0
856 -40 -50 -2380 2382 0
856 40 -50 2380 2382 0
856 14 -16 -17 -3594 0
856 14 -16 17 3594 0
856 -14 16 -17 -3594 0
856 -14 16 17 3594 0
856 -14 -16 17 -3594 0
856 14 16 17 -3594 0
856 -14 -16 -17 3594 0
856 14 16 -17 3594 0
856 -406 -409 4786 -4788 0
856 -406 409 4786 4788 0
856 406 -409 -4786 -4788 0
856 406 409 -4786 4788 0
856 -406 409 -4786 -4788 0
856 406 409 4786 -4788 0
856 -406 -409 -4786 4788 0
856 406 -409 4786 4788 0
856 -367 -369 4504 -4506 0
856 -367 369 4504 4506 0
856 367 -369 -4504 -4506 0
856 367 369 -4504 4506 0
856 -367 369 -4504 -4506 0
856 367 369 4504 -4506 0
856 -367 -369 -4504 4506 0
856 367 -369 4504 4506 0
856 -115 -118 3587 -3589 0
856 -115 118 3587 3589 0
856 115 -118 -3587 -3589 0
856 115 118 -3587 3589 0
856 -115 118 -3587 -3589 0
856 115 118 3587 -3589 0
856 -115 -118 -3587 3589 0
856 115 -118 3587 3589 0
856 -396 -401 4799 -4801 0
856 -396 401 4799 4801 0
856 396 -401 -4799 -4801 0
856 396 401 -4799 4801 0
856 -396 401 -4799 -4801 0
856 396 401 4799 -4801 0
856 -396 -401 -4799 4801 0
856 396 -401 4799 4801 0
856 -417 -418 4792 -4794 0
856 -417 418 4792 4794 0
856 417 -418 -4792 -4794 0
856 417 418 -4792 4794 0
856 -417 418 -4792 -4794 0
856 417 418 4792 -4794 0
856 -417 -418 -4792 4794 0
856 417 -418 4792 4794 0
856 -393 -394 4797 -4799 0
856 -393 394 4797 4799 0
856 393 -394 -4797 -4799 0
856 393 394 -4797 4799 0
856 -393 394 -4797 -4799 0
856 393 394 4797 -4799 0
856 -393 -394 -4797 4799 0
856 393 -394 4797 4799 0
856 -418 -419 4808 -4810 0
856 -418 419 4808 4810 0
856 418 -419 -4808 -4810 0
856 418 419 -4808 4810 0
856 -418 419 -4808 -4810 0
856 418 419 4808 -4810 0
856 -418 -419 -4808 4810 0
856 418 -419 4808 4810 0
856 -408 -409 4802 -4804 0
856 -408 409 4802 4804 0
856 408 -409 -4802 -4804 0
856 408 409 -4802 4804 0
856 -408 409 -4802 -4804 0
856 408 409 4802 -4804 0
856 -408 -409 -4802 4804 0
856 408 -409 4802 4804 0
856 -18 -62 3581 -3583 0
856 -18 62 3581 3583 0
856 18 -62 -3581 -3583 0
856 18 62 -3581 3583 0
856 -18 62 -3581 -3583 0
856 18 62 3581 -3583 0
856 -18 -62 -3581 3583 0
856 18 -62 3581 3583 0
856 384 -433 -487 -1792 0
856 384 -433 487 1792 0
856 -384 433 -487 -1792 0
856 -384 433 487 1792 0
856 -384 -433 487 -1792 0
856 384 433 487 -1792 0
856 -384 -433 -487 1792 0
856 384 433 -487 1792 0
856 -414 -416 4806 -4808 0
856 -414 416 4806 4808 0
856 414 -416 -4806 -4808 0
856 414 416 -4806 4808 0
856 -414 416 -4806 -4808 0
856 414 416 4806 -4808 0
856 -414 -416 -4806 4808 0
856 414 -416 4806 4808 0
856 -361 -362 4500 -4502 0
856 -361 362 4500 4502 0
856 361 -362 -4500 -4502 0
856 361 362 -4500 4502 0
856 -361 362 -4500 -4502 0
856 361 362 4500 -4502 0
856 -361 -362 -4500 4502 0
856 361 -362 4500 4502 0
856 13 -15 -16 -3580 0
856 13 -15 16 3580 0
856 -13 15 -16 -3580 0
856 -13 15 16 3580 0
856 -13 -15 16 -3580 0
856 13 15 16 -3580 0
856 -13 -15 -16 3580 0
856 13 15 -16 3580 0
856 -404 -406 4818 -4820 0
856 -404 406 4818 4820 0
856 404 -406 -4818 -4820 0
856 404 406 -4818 4820 0
856 -404 406 -4818 -4820 0
856 404 406 4818 -4820 0
856 -404 -406 -4818 4820 0
856 404 -406 4818 4820 0
856 -394 -395 4813 -4815 0
856 -394 395 4813 4815 0
856 394 -395 -4813 -4815 0
856 394 395 -4813 4815 0
856 -394 395 -4813 -4815 0
856 394 395 4813 -4815 0
856 -394 -395 -4813 4815 0
856 394 -395 4813 4815 0
856 -112 -114 3572 -3574 0
856 -112 114 3572 3574 0
856 112 -114 -3572 -3574 0
856 112 114 -3572 3574 0
856 -112 114 -3572 -3574 0
856 112 114 3572 -3574 0
856 -112 -114 -3572 3574 0
856 112 -114 3572 3574 0
856 -586 -626 1786 -1788 0
856 -586 626 1786 1788 0
856 586 -626 -1786 -1788 0
856 586 626 -1786 1788 0
856 -586 626 -1786 -1788 0
856 586 626 1786 -1788 0
856 -586 -626 -1786 1788 0
856 586 -626 1786 1788 0
856 -401 -403 4816 -4818 0
856 -401 403 4816 4818 0
856 401 -403 -4816 -4818 0
856 401 403 -4816 4818 0
856 -401 403 -4816 -4818 0
856 401 403 4816 -4818 0
856 -401 -403 -4816 4818 0
856 401 -403 4816 4818 0
856 393 -394 -395 -4830 0
856 393 -394 395 4830 0
856 -393 394 -395 -4830 0
856 -393 394 395 4830 0
856 -393 -394 395 -4830 0
856 393 394 395 -4830 0
856 -393 -394 -395 4830 0
856 393 394 -395 4830 0
856 -61 -65 3568 -3570 0
856 -61 65 3568 3570 0
856 61 -65 -3568 -3570 0
856 61 65 -3568 3570 0
856 -61 65 -3568 -3570 0
856 61 65 3568 -3570 0
856 -61 -65 -3568 3570 0
856 61 -65 3568 3570 0
856 383 -432 -486 -1785 0
856 383 -432 486 1785 0
856 -383 432 -486 -1785 0
856 -383 432 486 1785 0
856 -383 -432 486 -1785 0
856 383 432 486 -1785 0
856 -383 -432 -486 1785 0
856 383 432 -486 1785 0
856 -408 -411 4821 -4823 0
856 -408 411 4821 4823 0
856 408 -411 -4821 -4823 0
856 408 411 -4821 4823 0
856 -408 411 -4821 -4823 0
856 408 411 4821 -4823 0
856 -408 -411 -4821 4823 0
856 408 -411 4821 4823 0
856 -15 -16 3565 -3567 0
856 -15 16 3565 3567 0
856 15 -16 -3565 -3567 0
856 15 16 -3565 3567 0
856 -15 16 -3565 -3567 0
856 15 16 3565 -3567 0
856 -15 -16 -3565 3567 0
856 15 -16 3565 3567 0
856 -416 -418 4824 -4826 0
856 -416 418 4824 4826 0
856 416 -418 -4824 -4826 0
856 416 418 -4824 4826 0
856 -416 418 -4824 -4826 0
856 416 418 4824 -4826 0
856 -416 -418 -4824 4826 0
856 416 -418 4824 4826 0
856 -48 -257 2248 -2250 0
856 -48 257 2248 2250 0
856 48 -257 -2248 -2250 0
856 48 257 -2248 2250 0
856 -48 257 -2248 -2250 0
856 48 257 2248 -2250 0
856 -48 -257 -2248 2250 0
856 48 -257 2248 2250 0
856 -399 -401 4847 -4849 0
856 -399 401 4847 4849 0
856 399 -401 -4847 -4849 0
856 399 401 -4847 4849 0
856 -399 401 -4847 -4849 0
856 399 401 4847 -4849 0
856 -399 -401 -4847 4849 0
856 399 -401 4847 4849 0
856 -116 -117 3560 -3562 0
856 -116 117 3560 3562 0
856 116 -117 -3560 -3562 0
856 116 117 -3560 3562 0
856 -116 117 -3560 -3562 0
856 116 117 3560 -3562 0
856 -116 -117 -3560 3562 0
856 116 -117 3560 3562 0
856 -409 -412 4837 -4839 0
856 -409 412 4837 4839 0
856 409 -412 -4837 -4839 0
856 409 412 -4837 4839 0
856 -409 412 -4837 -4839 0
856 409 412 4837 -4839 0
856 -409 -412 -4837 4839 0
856 409 -412 4837 4839 0
856 -402 -404 4832 -4834 0
856 -402 404 4832 4834 0
856 402 -404 -4832 -4834 0
856 402 404 -4832 4834 0
856 -402 404 -4832 -4834 0
856 402 404 4832 -4834 0
856 -402 -404 -4832 4834 0
856 402 -404 4832 4834 0
856 -407 -408 4835 -4837 0
856 -407 408 4835 4837 0
856 407 -408 -4835 -4837 0
856 407 408 -4835 4837 0
856 -407 408 -4835 -4837 0
856 407 408 4835 -4837 0
856 -407 -408 -4835 4837 0
856 407 -408 4835 4837 0
856 -66 -68 3555 -3557 0
856 -66 68 3555 3557 0
856 66 -68 -3555 -3557 0
856 66 68 -3555 3557 0
856 -66 68 -3555 -3557 0
856 66 68 3555 -3557 0
856 -66 -68 -3555 3557 0
856 66 -68 3555 3557 0
856 -533 -585 1778 -1780 0
856 -533 585 1778 1780 0
856 533 -585 -1778 -1780 0
856 533 585 -1778 1780 0
856 -533 585 -1778 -1780 0
856 533 585 1778 -1780 0
856 -533 -585 -1778 1780 0
856 533 -585 1778 1780 0
856 -131 -143 2674 -2676 0
856 -131 143 2674 2676 0
856 131 -143 -2674 -2676 0
856 131 143 -2674 2676 0
856 -131 143 -2674 -2676 0
856 131 143 2674 -2676 0
856 -131 -143 -2674 2676 0
856 131 -143 2674 2676 0
856 -417 -419 4840 -4842 0
856 -417 419 4840 4842 0
856 417 -419 -4840 -4842 0
856 417 419 -4840 4842 0
856 -417 419 -4840 -4842 0
856 417 419 4840 -4842 0
856 -417 -419 -4840 4842 0
856 417 -419 4840 4842 0
856 -61 -62 3552 -3554 0
856 -61 62 3552 3554 0
856 61 -62 -3552 -3554 0
856 61 62 -3552 3554 0
856 -61 62 -3552 -3554 0
856 61 62 3552 -3554 0
856 -61 -62 -3552 3554 0
856 61 -62 3552 3554 0
856 -396 -397 4845 -4847 0
856 -396 397 4845 4847 0
856 396 -397 -4845 -4847 0
856 396 397 -4845 4847 0
856 -396 397 -4845 -4847 0
856 396 397 4845 -4847 0
856 -396 -397 -4845 4847 0
856 396 -397 4845 4847 0
856 -416 -417 4855 -4857 0
856 -416 417 4855 4857 0
856 416 -417 -4855 -4857 0
856 416 417 -4855 4857 0
856 -416 417 -4855 -4857 0
856 416 417 4855 -4857 0
856 -416 -417 -4855 4857 0
856 416 -417 4855 4857 0
856 -18 -19 3549 -3551 0
856 -18 19 3549 3551 0
856 18 -19 -3549 -3551 0
856 18 19 -3549 3551 0
856 -18 19 -3549 -3551 0
856 18 19 3549 -3551 0
856 -18 -19 -3549 3551 0
856 18 -19 3549 3551 0
856 -404 -407 4850 -4852 0
856 -404 407 4850 4852 0
856 404 -407 -4850 -4852 0
856 404 407 -4850 4852 0
856 -404 407 -4850 -4852 0
856 404 407 4850 -4852 0
856 -404 -407 -4850 4852 0
856 404 -407 4850 4852 0
856 -72 -84 2414 -2416 0
856 -72 84 2414 2416 0
856 72 -84 -2414 -2416 0
856 72 84 -2414 2416 0
856 -72 84 -2414 -2416 0
856 72 84 2414 -2416 0
856 -72 -84 -2414 2416 0
856 72 -84 2414 2416 0
856 -412 -415 4853 -4855 0
856 -412 415 4853 4855 0
856 412 -415 -4853 -4855 0
856 412 415 -4853 4855 0
856 -412 415 -4853 -4855 0
856 412 415 4853 -4855 0
856 -412 -415 -4853 4855 0
856 412 -415 4853 4855 0
856 -108 -109 3544 -3546 0
856 -108 109 3544 3546 0
856 108 -109 -3544 -3546 0
856 108 109 -3544 3546 0
856 -108 109 -3544 -3546 0
856 108 109 3544 -3546 0
856 -108 -109 -3544 3546 0
856 108 -109 3544 3546 0
856 -351 -352 4496 -4498 0
856 -351 352 4496 4498 0
856 351 -352 -4496 -4498 0
856 351 352 -4496 4498 0
856 -351 352 -4496 -4498 0
856 351 352 4496 -4498 0
856 -351 -352 -4496 4498 0
856 351 -352 4496 4498 0
856 -101 -103 3540 -3542 0
856 -101 103 3540 3542 0
856 101 -103 -3540 -3542 0
856 101 103 -3540 3542 0
856 -101 103 -3540 -3542 0
856 101 103 3540 -3542 0
856 -101 -103 -3540 3542 0
856 101 -103 3540 3542 0
856 -484 -532 1770 -1772 0
856 -484 532 1770 1772 0
856 484 -532 -1770 -1772 0
856 484 532 -1770 1772 0
856 -484 532 -1770 -1772 0
856 484 532 1770 -1772 0
856 -484 -532 -1770 1772 0
856 484 -532 1770 1772 0
856 391 -392 -393 -4862 0
856 391 -392 393 4862 0
856 -391 392 -393 -4862 0
856 -391 392 393 4862 0
856 -391 -392 393 -4862 0
856 391 392 393 -4862 0
856 -391 -392 -393 4862 0
856 391 392 -393 4862 0
856 -53 -54 3536 -3538 0
856 -53 54 3536 3538 0
856 53 -54 -3536 -3538 0
856 53 54 -3536 3538 0
856 -53 54 -3536 -3538 0
856 53 54 3536 -3538 0
856 -53 -54 -3536 3538 0
856 53 -54 3536 3538 0
856 -400 -401 5391 -5393 0
856 -400 401 5391 5393 0
856 400 -401 -5391 -5393 0
856 400 401 -5391 5393 0
856 -400 401 -5391 -5393 0
856 400 401 5391 -5393 0
856 -400 -401 -5391 5393 0
856 400 -401 5391 5393 0
856 -568 -592 1338 -1340 0
856 -568 592 1338 1340 0
856 568 -592 -1338 -1340 0
856 568 592 -1338 1340 0
856 -568 592 -1338 -1340 0
856 568 592 1338 -1340 0
856 -568 -592 -1338 1340 0
856 568 -592 1338 1340 0
856 -368 -369 5385 -5387 0
856 -368 369 5385 5387 0
856 368 -369 -5385 -5387 0
856 368 369 -5385 5387 0
856 -368 369 -5385 -5387 0
856 368 369 5385 -5387 0
856 -368 -369 -5385 5387 0
856 368 -369 5385 5387 0
856 1 -6 -7 -3534 0
856 1 -6 7 3534 0
856 -1 6 -7 -3534 0
856 -1 6 7 3534 0
856 -1 -6 7 -3534 0
856 1 6 7 -3534 0
856 -1 -6 -7 3534 0
856 1 6 -7 3534 0
856 -92 -259 2416 -2418 0
856 -92 259 2416 2418 0
856 92 -259 -2416 -2418 0
856 92 259 -2416 2418 0
856 -92 259 -2416 -2418 0
856 92 259 2416 -2418 0
856 -92 -259 -2416 2418 0
856 92 -259 2416 2418 0
856 -105 -109 3528 -3530 0
856 -105 109 3528 3530 0
856 105 -109 -3528 -3530 0
856 105 109 -3528 3530 0
856 -105 109 -3528 -3530 0
856 105 109 3528 -3530 0
856 -105 -109 -3528 3530 0
856 105 -109 3528 3530 0
856 -145 -265 2689 -2691 0
856 -145 265 2689 2691 0
856 145 -265 -2689 -2691 0
856 145 265 -2689 2691 0
856 -145 265 -2689 -2691 0
856 145 265 2689 -2691 0
856 -145 -265 -2689 2691 0
856 145 -265 2689 2691 0
856 -579 -591 1345 -1347 0
856 -579 591 1345 1347 0
856 579 -591 -1345 -1347 0
856 579 591 -1345 1347 0
856 -579 591 -1345 -1347 0
856 579 591 1345 -1347 0
856 -579 -591 -1345 1347 0
856 579 -591 1345 1347 0
856 -53 -55 3523 -3525 0
856 -53 55 3523 3525 0
856 53 -55 -3523 -3525 0
856 53 55 -3523 3525 0
856 -53 55 -3523 -3525 0
856 53 55 3523 -3525 0
856 -53 -55 -3523 3525 0
856 53 -55 3523 3525 0
856 -125 -133 2687 -2689 0
856 -125 133 2687 2689 0
856 125 -133 -2687 -2689 0
856 125 133 -2687 2689 0
856 -125 133 -2687 -2689 0
856 125 133 2687 -2689 0
856 -125 -133 -2687 2689 0
856 125 -133 2687 2689 0
856 -460 -502 1210 -1212 0
856 -460 502 1210 1212 0
856 460 -502 -1210 -1212 0
856 460 502 -1210 1212 0
856 -460 502 -1210 -1212 0
856 460 502 1210 -1212 0
856 -460 -502 -1210 1212 0
856 460 -502 1210 1212 0
856 -352 -354 5378 -5380 0
856 -352 354 5378 5380 0
856 352 -354 -5378 -5380 0
856 352 354 -5378 5380 0
856 -352 354 -5378 -5380 0
856 352 354 5378 -5380 0
856 -352 -354 -5378 5380 0
856 352 -354 5378 5380 0
856 -4 -9 3520 -3522 0
856 -4 9 3520 3522 0
856 4 -9 -3520 -3522 0
856 4 9 -3520 3522 0
856 -4 9 -3520 -3522 0
856 4 9 3520 -3522 0
856 -4 -9 -3520 3522 0
856 4 -9 3520 3522 0
856 -479 -521 1343 -1345 0
856 -479 521 1343 1345 0
856 479 -521 -1343 -1345 0
856 479 521 -1343 1345 0
856 -479 521 -1343 -1345 0
856 479 521 1343 -1345 0
856 -479 -521 -1343 1345 0
856 479 -521 1343 1345 0
856 344 -345 -346 -4494 0
856 344 -345 346 4494 0
856 -344 345 -346 -4494 0
856 -344 345 346 4494 0
856 -344 -345 346 -4494 0
856 344 345 346 -4494 0
856 -344 -345 -346 4494 0
856 344 345 -346 4494 0
856 1 -2 -3 -3520 0
856 1 -2 3 3520 0
856 -1 2 -3 -3520 0
856 -1 2 3 3520 0
856 -1 -2 3 -3520 0
856 1 2 3 -3520 0
856 -1 -2 -3 3520 0
856 1 2 -3 3520 0
856 -94 -251 2430 -2432 0
856 -94 251 2430 2432 0
856 94 -251 -2430 -2432 0
856 94 251 -2430 2432 0
856 -94 251 -2430 -2432 0
856 94 251 2430 -2432 0
856 -94 -251 -2430 2432 0
856 94 -251 2430 2432 0
856 -105 -106 3512 -3514 0
856 -105 106 3512 3514 0
856 105 -106 -3512 -3514 0
856 105 106 -3512 3514 0
856 -105 106 -3512 -3514 0
856 105 106 3512 -3514 0
856 -105 -106 -3512 3514 0
856 105 -106 3512 3514 0
856 379 -428 -472 -1757 0
856 379 -428 472 1757 0
856 -379 428 -472 -1757 0
856 -379 428 472 1757 0
856 -379 -428 472 -1757 0
856 379 428 472 -1757 0
856 -379 -428 -472 1757 0
856 379 428 -472 1757 0
856 -555 -556 5360 -5362 0
856 -555 556 5360 5362 0
856 555 -556 -5360 -5362 0
856 555 556 -5360 5362 0
856 -555 556 -5360 -5362 0
856 555 556 5360 -5362 0
856 -555 -556 -5360 5362 0
856 555 -556 5360 5362 0
856 -54 -57 3508 -3510 0
856 -54 57 3508 3510 0
856 54 -57 -3508 -3510 0
856 54 57 -3508 3510 0
856 -54 57 -3508 -3510 0
856 54 57 3508 -3510 0
856 -54 -57 -3508 3510 0
856 54 -57 3508 3510 0
856 -124 -132 2680 -2682 0
856 -124 132 2680 2682 0
856 124 -132 -2680 -2682 0
856 124 132 -2680 2682 0
856 -124 132 -2680 -2682 0
856 124 132 2680 -2682 0
856 -124 -132 -2680 2682 0
856 124 -132 2680 2682 0
856 3 -15 -28 -2247 0
856 3 -15 28 2247 0
856 -3 15 -28 -2247 0
856 -3 15 28 2247 0
856 -3 -15 28 -2247 0
856 3 15 28 -2247 0
856 -3 -15 -28 2247 0
856 3 15 -28 2247 0
856 -7 -9 3504 -3506 0
856 -7 9 3504 3506 0
856 7 -9 -3504 -3506 0
856 7 9 -3504 3506 0
856 -7 9 -3504 -3506 0
856 7 9 3504 -3506 0
856 -7 -9 -3504 3506 0
856 7 -9 3504 3506 0
856 -571 -629 1751 -1753 0
856 -571 629 1751 1753 0
856 571 -629 -1751 -1753 0
856 571 629 -1751 1753 0
856 -571 629 -1751 -1753 0
856 571 629 1751 -1753 0
856 -571 -629 -1751 1753 0
856 571 -629 1751 1753 0
856 -568 -569 5369 -5371 0
856 -568 569 5369 5371 0
856 568 -569 -5369 -5371 0
856 568 569 -5369 5371 0
856 -568 569 -5369 -5371 0
856 568 569 5369 -5371 0
856 -568 -569 -5369 5371 0
856 568 -569 5369 5371 0
856 -561 -563 5364 -5366 0
856 -561 563 5364 5366 0
856 561 -563 -5364 -5366 0
856 561 563 -5364 5366 0
856 -561 563 -5364 -5366 0
856 561 563 5364 -5366 0
856 -561 -563 -5364 5366 0
856 561 -563 5364 5366 0
856 -74 -86 2428 -2430 0
856 -74 86 2428 2430 0
856 74 -86 -2428 -2430 0
856 74 86 -2428 2430 0
856 -74 86 -2428 -2430 0
856 74 86 2428 -2430 0
856 -74 -86 -2428 2430 0
856 74 -86 2428 2430 0
856 -102 -103 3496 -3498 0
856 -102 103 3496 3498 0
856 102 -103 -3496 -3498 0
856 102 103 -3496 3498 0
856 -102 103 -3496 -3498 0
856 102 103 3496 -3498 0
856 -102 -103 -3496 3498 0
856 102 -103 3496 3498 0
856 -401 -405 4878 -4880 0
856 -401 405 4878 4880 0
856 401 -405 -4878 -4880 0
856 401 405 -4878 4880 0
856 -401 405 -4878 -4880 0
856 401 405 4878 -4880 0
856 -401 -405 -4878 4880 0
856 401 -405 4878 4880 0
856 -399 -402 4863 -4865 0
856 -399 402 4863 4865 0
856 399 -402 -4863 -4865 0
856 399 402 -4863 4865 0
856 -399 402 -4863 -4865 0
856 399 402 4863 -4865 0
856 -399 -402 -4863 4865 0
856 399 -402 4863 4865 0
856 -75 -87 2435 -2437 0
856 -75 87 2435 2437 0
856 75 -87 -2435 -2437 0
856 75 87 -2435 2437 0
856 -75 87 -2435 -2437 0
856 75 87 2435 -2437 0
856 -75 -87 -2435 2437 0
856 75 -87 2435 2437 0
856 -54 -55 3491 -3493 0
856 -54 55 3491 3493 0
856 54 -55 -3491 -3493 0
856 54 55 -3491 3493 0
856 -54 55 -3491 -3493 0
856 54 55 3491 -3493 0
856 -54 -55 -3491 3493 0
856 54 -55 3491 3493 0
856 -411 -414 4868 -4870 0
856 -411 414 4868 4870 0
856 411 -414 -4868 -4870 0
856 411 414 -4868 4870 0
856 -411 414 -4868 -4870 0
856 411 414 4868 -4870 0
856 -411 -414 -4868 4870 0
856 411 -414 4868 4870 0
856 -88 -96 2443 -2445 0
856 -88 96 2443 2445 0
856 88 -96 -2443 -2445 0
856 88 96 -2443 2445 0
856 -88 96 -2443 -2445 0
856 88 96 2443 -2445 0
856 -88 -96 -2443 2445 0
856 88 -96 2443 2445 0
856 -5 -6 3487 -3489 0
856 -5 6 3487 3489 0
856 5 -6 -3487 -3489 0
856 5 6 -3487 3489 0
856 -5 6 -3487 -3489 0
856 5 6 3487 -3489 0
856 -5 -6 -3487 3489 0
856 5 -6 3487 3489 0
856 -415 -419 4870 -4872 0
856 -415 419 4870 4872 0
856 415 -419 -4870 -4872 0
856 415 419 -4870 4872 0
856 -415 419 -4870 -4872 0
856 415 419 4870 -4872 0
856 -415 -419 -4870 4872 0
856 415 -419 4870 4872 0
856 -394 -398 4876 -4878 0
856 -394 398 4876 4878 0
856 394 -398 -4876 -4878 0
856 394 398 -4876 4878 0
856 -394 398 -4876 -4878 0
856 394 398 4876 -4878 0
856 -394 -398 -4876 4878 0
856 394 -398 4876 4878 0
856 -404 -405 4896 -4898 0
856 -404 405 4896 4898 0
856 404 -405 -4896 -4898 0
856 404 405 -4896 4898 0
856 -404 405 -4896 -4898 0
856 404 405 4896 -4898 0
856 -404 -405 -4896 4898 0
856 404 -405 4896 4898 0
856 -480 -528 1742 -1744 0
856 -480 528 1742 1744 0
856 480 -528 -1742 -1744 0
856 480 528 -1742 1744 0
856 -480 528 -1742 -1744 0
856 480 528 1742 -1744 0
856 -480 -528 -1742 1744 0
856 480 -528 1742 1744 0
856 -408 -409 4880 -4882 0
856 -408 409 4880 4882 0
856 408 -409 -4880 -4882 0
856 408 409 -4880 4882 0
856 -408 409 -4880 -4882 0
856 408 409 4880 -4882 0
856 -408 -409 -4880 4882 0
856 408 -409 4880 4882 0
856 -101 -102 3480 -3482 0
856 -101 102 3480 3482 0
856 101 -102 -3480 -3482 0
856 101 102 -3480 3482 0
856 -101 102 -3480 -3482 0
856 101 102 3480 -3482 0
856 -101 -102 -3480 3482 0
856 101 -102 3480 3482 0
856 -416 -417 4885 -4887 0
856 -416 417 4885 4887 0
856 416 -417 -4885 -4887 0
856 416 417 -4885 4887 0
856 -416 417 -4885 -4887 0
856 416 417 4885 -4887 0
856 -416 -417 -4885 4887 0
856 416 -417 4885 4887 0
856 -401 -403 4894 -4896 0
856 -401 403 4894 4896 0
856 401 -403 -4894 -4896 0
856 401 403 -4894 4896 0
856 -401 403 -4894 -4896 0
856 401 403 4894 -4896 0
856 -401 -403 -4894 4896 0
856 401 -403 4894 4896 0
856 -54 -56 3476 -3478 0
856 -54 56 3476 3478 0
856 54 -56 -3476 -3478 0
856 54 56 -3476 3478 0
856 -54 56 -3476 -3478 0
856 54 56 3476 -3478 0
856 -54 -56 -3476 3478 0
856 54 -56 3476 3478 0
856 392 -393 -394 -4892 0
856 392 -393 394 4892 0
856 -392 393 -394 -4892 0
856 -392 393 394 4892 0
856 -392 -393 394 -4892 0
856 392 393 394 -4892 0
856 -392 -393 -394 4892 0
856 392 393 -394 4892 0
856 -5 -7 3472 -3474 0
856 -5 7 3472 3474 0
856 5 -7 -3472 -3474 0
856 5 7 -3472 3474 0
856 -5 7 -3472 -3474 0
856 5 7 3472 -3474 0
856 -5 -7 -3472 3474 0
856 5 -7 3472 3474 0
856 -479 -527 1735 -1737 0
856 -479 527 1735 1737 0
856 479 -527 -1735 -1737 0
856 479 527 -1735 1737 0
856 -479 527 -1735 -1737 0
856 479 527 1735 -1737 0
856 -479 -527 -1735 1737 0
856 479 -527 1735 1737 0
856 -395 -399 4892 -4894 0
856 -395 399 4892 4894 0
856 395 -399 -4892 -4894 0
856 395 399 -4892 4894 0
856 -395 399 -4892 -4894 0
856 395 399 4892 -4894 0
856 -395 -399 -4892 4894 0
856 395 -399 4892 4894 0
856 -406 -408 4913 -4915 0
856 -406 408 4913 4915 0
856 406 -408 -4913 -4915 0
856 406 408 -4913 4915 0
856 -406 408 -4913 -4915 0
856 406 408 4913 -4915 0
856 -406 -408 -4913 4915 0
856 406 -408 4913 4915 0
856 -407 -408 4898 -4900 0
856 -407 408 4898 4900 0
856 407 -408 -4898 -4900 0
856 407 408 -4898 4900 0
856 -407 408 -4898 -4900 0
856 407 408 4898 -4900 0
856 -407 -408 -4898 4900 0
856 407 -408 4898 4900 0
856 -416 -419 4902 -4904 0
856 -416 419 4902 4904 0
856 416 -419 -4902 -4904 0
856 416 419 -4902 4904 0
856 -416 419 -4902 -4904 0
856 416 419 4902 -4904 0
856 -416 -419 -4902 4904 0
856 416 -419 4902 4904 0
856 441 -442 -443 -5014 0
856 441 -442 443 5014 0
856 -441 442 -443 -5014 0
856 -441 442 443 5014 0
856 -441 -442 443 -5014 0
856 441 442 443 -5014 0
856 -441 -442 -443 5014 0
856 441 442 -443 5014 0
856 -104 -106 3464 -3466 0
856 -104 106 3464 3466 0
856 104 -106 -3464 -3466 0
856 104 106 -3464 3466 0
856 -104 106 -3464 -3466 0
856 104 106 3464 -3466 0
856 -104 -106 -3464 3466 0
856 104 -106 3464 3466 0
856 53 -65 -78 -2457 0
856 53 -65 78 2457 0
856 -53 65 -78 -2457 0
856 -53 65 78 2457 0
856 -53 -65 78 -2457 0
856 53 65 78 -2457 0
856 -53 -65 -78 2457 0
856 53 65 -78 2457 0
856 -397 -398 4907 -4909 0
856 -397 398 4907 4909 0
856 397 -398 -4907 -4909 0
856 397 398 -4907 4909 0
856 -397 398 -4907 -4909 0
856 397 398 4907 -4909 0
856 -397 -398 -4907 4909 0
856 397 -398 4907 4909 0
856 -54 -58 3459 -3461 0
856 -54 58 3459 3461 0
856 54 -58 -3459 -3461 0
856 54 58 -3459 3461 0
856 -54 58 -3459 -3461 0
856 54 58 3459 -3461 0
856 -54 -58 -3459 3461 0
856 54 -58 3459 3461 0
856 -578 -626 1730 -1732 0
856 -578 626 1730 1732 0
856 578 -626 -1730 -1732 0
856 578 626 -1730 1732 0
856 -578 626 -1730 -1732 0
856 578 626 1730 -1732 0
856 -578 -626 -1730 1732 0
856 578 -626 1730 1732 0
856 -404 -405 4911 -4913 0
856 -404 405 4911 4913 0
856 404 -405 -4911 -4913 0
856 404 405 -4911 4913 0
856 -404 405 -4911 -4913 0
856 404 405 4911 -4913 0
856 -404 -405 -4911 4913 0
856 404 -405 4911 4913 0
856 -414 -418 4934 -4936 0
856 -414 418 4934 4936 0
856 414 -418 -4934 -4936 0
856 414 418 -4934 4936 0
856 -414 418 -4934 -4936 0
856 414 418 4934 -4936 0
856 -414 -418 -4934 4936 0
856 414 -418 4934 4936 0
856 -411 -414 4916 -4918 0
856 -411 414 4916 4918 0
856 411 -414 -4916 -4918 0
856 411 414 -4916 4918 0
856 -411 414 -4916 -4918 0
856 411 414 4916 -4918 0
856 -411 -414 -4916 4918 0
856 411 -414 4916 4918 0
856 -418 -419 4920 -4922 0
856 -418 419 4920 4922 0
856 418 -419 -4920 -4922 0
856 418 419 -4920 4922 0
856 -418 419 -4920 -4922 0
856 418 419 4920 -4922 0
856 -418 -419 -4920 4922 0
856 418 -419 4920 4922 0
856 -411 -413 4932 -4934 0
856 -411 413 4932 4934 0
856 411 -413 -4932 -4934 0
856 411 413 -4932 4934 0
856 -411 413 -4932 -4934 0
856 411 413 4932 -4934 0
856 -411 -413 -4932 4934 0
856 411 -413 4932 4934 0
856 -506 -508 5131 -5133 0
856 -506 508 5131 5133 0
856 506 -508 -5131 -5133 0
856 506 508 -5131 5133 0
856 -506 508 -5131 -5133 0
856 506 508 5131 -5133 0
856 -506 -508 -5131 5133 0
856 506 -508 5131 5133 0
856 1 -2 -3 -3456 0
856 1 -2 3 3456 0
856 -1 2 -3 -3456 0
856 -1 2 3 3456 0
856 -1 -2 3 -3456 0
856 1 2 3 -3456 0
856 -1 -2 -3 3456 0
856 1 2 -3 3456 0
856 -399 -400 4926 -4928 0
856 -399 400 4926 4928 0
856 399 -400 -4926 -4928 0
856 399 400 -4926 4928 0
856 -399 400 -4926 -4928 0
856 399 400 4926 -4928 0
856 -399 -400 -4926 4928 0
856 399 -400 4926 4928 0
856 -103 -105 3448 -3450 0
856 -103 105 3448 3450 0
856 103 -105 -3448 -3450 0
856 103 105 -3448 3450 0
856 -103 105 -3448 -3450 0
856 103 105 3448 -3450 0
856 -103 -105 -3448 3450 0
856 103 -105 3448 3450 0
856 -577 -625 1723 -1725 0
856 -577 625 1723 1725 0
856 577 -625 -1723 -1725 0
856 577 625 -1723 1725 0
856 -577 625 -1723 -1725 0
856 577 625 1723 -1725 0
856 -577 -625 -1723 1725 0
856 577 -625 1723 1725 0
856 -401 -402 4928 -4930 0
856 -401 402 4928 4930 0
856 401 -402 -4928 -4930 0
856 401 402 -4928 4930 0
856 -401 402 -4928 -4930 0
856 401 402 4928 -4930 0
856 -401 -402 -4928 4930 0
856 401 -402 4928 4930 0
856 -404 -408 4930 -4932 0
856 -404 408 4930 4932 0
856 404 -408 -4930 -4932 0
856 404 408 -4930 4932 0
856 -404 408 -4930 -4932 0
856 404 408 4930 -4932 0
856 -404 -408 -4930 4932 0
856 404 -408 4930 4932 0
856 -56 -59 3444 -3446 0
856 -56 59 3444 3446 0
856 56 -59 -3444 -3446 0
856 56 59 -3444 3446 0
856 -56 59 -3444 -3446 0
856 56 59 3444 -3446 0
856 -56 -59 -3444 3446 0
856 56 -59 3444 3446 0
856 343 -344 -345 -4478 0
856 343 -344 345 4478 0
856 -343 344 -345 -4478 0
856 -343 344 345 4478 0
856 -343 -344 345 -4478 0
856 343 344 345 -4478 0
856 -343 -344 -345 4478 0
856 343 344 -345 4478 0
856 2 -14 -27 -2240 0
856 2 -14 27 2240 0
856 -2 14 -27 -2240 0
856 -2 14 27 2240 0
856 -2 -14 27 -2240 0
856 2 14 27 -2240 0
856 -2 -14 -27 2240 0
856 2 14 -27 2240 0
856 -73 -81 2463 -2465 0
856 -73 81 2463 2465 0
856 73 -81 -2463 -2465 0
856 73 81 -2463 2465 0
856 -73 81 -2463 -2465 0
856 73 81 2463 -2465 0
856 -73 -81 -2463 2465 0
856 73 -81 2463 2465 0
856 -51 -52 3440 -3442 0
856 -51 52 3440 3442 0
856 51 -52 -3440 -3442 0
856 51 52 -3440 3442 0
856 -51 52 -3440 -3442 0
856 51 52 3440 -3442 0
856 -51 -52 -3440 3442 0
856 51 -52 3440 3442 0
856 374 -423 -477 -1722 0
856 374 -423 477 1722 0
856 -374 423 -477 -1722 0
856 -374 423 477 1722 0
856 -374 -423 477 -1722 0
856 374 423 477 -1722 0
856 -374 -423 -477 1722 0
856 374 423 -477 1722 0
856 391 -393 -394 -4940 0
856 391 -393 394 4940 0
856 -391 393 -394 -4940 0
856 -391 393 394 4940 0
856 -391 -393 394 -4940 0
856 391 393 394 -4940 0
856 -391 -393 -394 4940 0
856 391 393 -394 4940 0
856 -402 -403 4942 -4944 0
856 -402 403 4942 4944 0
856 402 -403 -4942 -4944 0
856 402 403 -4942 4944 0
856 -402 403 -4942 -4944 0
856 402 403 4942 -4944 0
856 -402 -403 -4942 4944 0
856 402 -403 4942 4944 0
856 -7 -8 3437 -3439 0
856 -7 8 3437 3439 0
856 7 -8 -3437 -3439 0
856 7 8 -3437 3439 0
856 -7 8 -3437 -3439 0
856 7 8 3437 -3439 0
856 -7 -8 -3437 3439 0
856 7 -8 3437 3439 0
856 391 -392 -394 -4954 0
856 391 -392 394 4954 0
856 -391 392 -394 -4954 0
856 -391 392 394 4954 0
856 -391 -392 394 -4954 0
856 391 392 394 -4954 0
856 -391 -392 -394 4954 0
856 391 392 -394 4954 0
856 -412 -414 4946 -4948 0
856 -412 414 4946 4948 0
856 412 -414 -4946 -4948 0
856 412 414 -4946 4948 0
856 -412 414 -4946 -4948 0
856 412 414 4946 -4948 0
856 -412 -414 -4946 4948 0
856 412 -414 4946 4948 0
856 -108 -109 3432 -3434 0
856 -108 109 3432 3434 0
856 108 -109 -3432 -3434 0
856 108 109 -3432 3434 0
856 -108 109 -3432 -3434 0
856 108 109 3432 -3434 0
856 -108 -109 -3432 3434 0
856 108 -109 3432 3434 0
856 -395 -396 4972 -4974 0
856 -395 396 4972 4974 0
856 395 -396 -4972 -4974 0
856 395 396 -4972 4974 0
856 -395 396 -4972 -4974 0
856 395 396 4972 -4974 0
856 -395 -396 -4972 4974 0
856 395 -396 4972 4974 0
856 -408 -409 4960 -4962 0
856 -408 409 4960 4962 0
856 408 -409 -4960 -4962 0
856 408 409 -4960 4962 0
856 -408 409 -4960 -4962 0
856 408 409 4960 -4962 0
856 -408 -409 -4960 4962 0
856 408 -409 4960 4962 0
856 -366 -368 4472 -4474 0
856 -366 368 4472 4474 0
856 366 -368 -4472 -4474 0
856 366 368 -4472 4474 0
856 -366 368 -4472 -4474 0
856 366 368 4472 -4474 0
856 -366 -368 -4472 4474 0
856 366 -368 4472 4474 0
856 -56 -57 3427 -3429 0
856 -56 57 3427 3429 0
856 56 -57 -3427 -3429 0
856 56 57 -3427 3429 0
856 -56 57 -3427 -3429 0
856 56 57 3427 -3429 0
856 -56 -57 -3427 3429 0
856 56 -57 3427 3429 0
856 -476 -524 1714 -1716 0
856 -476 524 1714 1716 0
856 476 -524 -1714 -1716 0
856 476 524 -1714 1716 0
856 -476 524 -1714 -1716 0
856 476 524 1714 -1716 0
856 -476 -524 -1714 1716 0
856 476 -524 1714 1716 0
856 -414 -417 4964 -4966 0
856 -414 417 4964 4966 0
856 414 -417 -4964 -4966 0
856 414 417 -4964 4966 0
856 -414 417 -4964 -4966 0
856 414 417 4964 -4966 0
856 -414 -417 -4964 4966 0
856 414 -417 4964 4966 0
856 391 -392 -393 -4972 0
856 391 -392 393 4972 0
856 -391 392 -393 -4972 0
856 -391 392 393 4972 0
856 -391 -392 393 -4972 0
856 391 392 393 -4972 0
856 -391 -392 -393 4972 0
856 391 392 -393 4972 0
856 -357 -358 4468 -4470 0
856 -357 358 4468 4470 0
856 357 -358 -4468 -4470 0
856 357 358 -4468 4470 0
856 -357 358 -4468 -4470 0
856 357 358 4468 -4470 0
856 -357 -358 -4468 4470 0
856 357 -358 4468 4470 0
856 -401 -404 4974 -4976 0
856 -401 404 4974 4976 0
856 401 -404 -4974 -4976 0
856 401 404 -4974 4976 0
856 -401 404 -4974 -4976 0
856 401 404 4974 -4976 0
856 -401 -404 -4974 4976 0
856 401 -404 4974 4976 0
856 -95 -268 2479 -2481 0
856 -95 268 2479 2481 0
856 95 -268 -2479 -2481 0
856 95 268 -2479 2481 0
856 -95 268 -2479 -2481 0
856 95 268 2479 -2481 0
856 -95 -268 -2479 2481 0
856 95 -268 2479 2481 0
856 3 -5 -6 -3424 0
856 3 -5 6 3424 0
856 -3 5 -6 -3424 0
856 -3 5 6 3424 0
856 -3 -5 6 -3424 0
856 3 5 6 -3424 0
856 -3 -5 -6 3424 0
856 3 5 -6 3424 0
856 -411 -414 4978 -4980 0
856 -411 414 4978 4980 0
856 411 -414 -4978 -4980 0
856 411 414 -4978 4980 0
856 -411 414 -4978 -4980 0
856 411 414 4978 -4980 0
856 -411 -414 -4978 4980 0
856 411 -414 4978 4980 0
856 -102 -104 3416 -3418 0
856 -102 104 3416 3418 0
856 102 -104 -3416 -3418 0
856 102 104 -3416 3418 0
856 -102 104 -3416 -3418 0
856 102 104 3416 -3418 0
856 -102 -104 -3416 3418 0
856 102 -104 3416 3418 0
856 -475 -523 1707 -1709 0
856 -475 523 1707 1709 0
856 475 -523 -1707 -1709 0
856 475 523 -1707 1709 0
856 -475 523 -1707 -1709 0
856 475 523 1707 -1709 0
856 -475 -523 -1707 1709 0
856 475 -523 1707 1709 0
856 -405 -406 4989 -4991 0
856 -405 406 4989 4991 0
856 405 -406 -4989 -4991 0
856 405 406 -4989 4991 0
856 -405 406 -4989 -4991 0
856 405 406 4989 -4991 0
856 -405 -406 -4989 4991 0
856 405 -406 4989 4991 0
856 -397 -402 4987 -4989 0
856 -397 402 4987 4989 0
856 397 -402 -4987 -4989 0
856 397 402 -4987 4989 0
856 -397 402 -4987 -4989 0
856 397 402 4987 -4989 0
856 -397 -402 -4987 4989 0
856 397 -402 4987 4989 0
856 -51 -55 3412 -3414 0
856 -51 55 3412 3414 0
856 51 -55 -3412 -3414 0
856 51 55 -3412 3414 0
856 -51 55 -3412 -3414 0
856 51 55 3412 -3414 0
856 -51 -55 -3412 3414 0
856 51 -55 3412 3414 0
856 -46 -255 2234 -2236 0
856 -46 255 2234 2236 0
856 46 -255 -2234 -2236 0
856 46 255 -2234 2236 0
856 -46 255 -2234 -2236 0
856 46 255 2234 -2236 0
856 -46 -255 -2234 2236 0
856 46 -255 2234 2236 0
856 -415 -417 4993 -4995 0
856 -415 417 4993 4995 0
856 415 -417 -4993 -4995 0
856 415 417 -4993 4995 0
856 -415 417 -4993 -4995 0
856 415 417 4993 -4995 0
856 -415 -417 -4993 4995 0
856 415 -417 4993 4995 0
856 -418 -419 5008 -5010 0
856 -418 419 5008 5010 0
856 418 -419 -5008 -5010 0
856 418 419 -5008 5010 0
856 -418 419 -5008 -5010 0
856 418 419 5008 -5010 0
856 -418 -419 -5008 5010 0
856 418 -419 5008 5010 0
856 -403 -406 5002 -5004 0
856 -403 406 5002 5004 0
856 403 -406 -5002 -5004 0
856 403 406 -5002 5004 0
856 -403 406 -5002 -5004 0
856 403 406 5002 -5004 0
856 -403 -406 -5002 5004 0
856 403 -406 5002 5004 0
856 -413 -416 5006 -5008 0
856 -413 416 5006 5008 0
856 413 -416 -5006 -5008 0
856 413 416 -5006 5008 0
856 -413 416 -5006 -5008 0
856 413 416 5006 -5008 0
856 -413 -416 -5006 5008 0
856 413 -416 5006 5008 0
856 -344 -345 4461 -4463 0
856 -344 345 4461 4463 0
856 344 -345 -4461 -4463 0
856 344 345 -4461 4463 0
856 -344 345 -4461 -4463 0
856 344 345 4461 -4463 0
856 -344 -345 -4461 4463 0
856 344 -345 4461 4463 0
856 -494 -495 5086 -5088 0
856 -494 495 5086 5088 0
856 494 -495 -5086 -5088 0
856 494 495 -5086 5088 0
856 -494 495 -5086 -5088 0
856 494 495 5086 -5088 0
856 -494 -495 -5086 5088 0
856 494 -495 5086 5088 0
856 -106 -107 3404 -3406 0
856 -106 107 3404 3406 0
856 106 -107 -3404 -3406 0
856 106 107 -3404 3406 0
856 -106 107 -3404 -3406 0
856 106 107 3404 -3406 0
856 -106 -107 -3404 3406 0
856 106 -107 3404 3406 0
856 -444 -445 5014 -5016 0
856 -444 445 5014 5016 0
856 444 -445 -5014 -5016 0
856 444 445 -5014 5016 0
856 -444 445 -5014 -5016 0
856 444 445 5014 -5016 0
856 -444 -445 -5014 5016 0
856 444 -445 5014 5016 0
856 -555 -592 1247 -1249 0
856 -555 592 1247 1249 0
856 555 -592 -1247 -1249 0
856 555 592 -1247 1249 0
856 -555 592 -1247 -1249 0
856 555 592 1247 -1249 0
856 -555 -592 -1247 1249 0
856 555 -592 1247 1249 0
856 -458 -459 5028 -5030 0
856 -458 459 5028 5030 0
856 458 -459 -5028 -5030 0
856 458 459 -5028 5030 0
856 -458 459 -5028 -5030 0
856 458 459 5028 -5030 0
856 -458 -459 -5028 5030 0
856 458 -459 5028 5030 0
856 -58 -59 3400 -3402 0
856 -58 59 3400 3402 0
856 58 -59 -3400 -3402 0
856 58 59 -3400 3402 0
856 -58 59 -3400 -3402 0
856 58 59 3400 -3402 0
856 -58 -59 -3400 3402 0
856 58 -59 3400 3402 0
856 371 -430 -474 -1701 0
856 371 -430 474 1701 0
856 -371 430 -474 -1701 0
856 -371 430 474 1701 0
856 -371 -430 474 -1701 0
856 371 430 474 -1701 0
856 -371 -430 -474 1701 0
856 371 430 -474 1701 0
856 -452 -453 5022 -5024 0
856 -452 453 5022 5024 0
856 452 -453 -5022 -5024 0
856 452 453 -5022 5024 0
856 -452 453 -5022 -5024 0
856 452 453 5022 -5024 0
856 -452 -453 -5022 5024 0
856 452 -453 5022 5024 0
856 -456 -457 5026 -5028 0
856 -456 457 5026 5028 0
856 456 -457 -5026 -5028 0
856 456 457 -5026 5028 0
856 -456 457 -5026 -5028 0
856 456 457 5026 -5028 0
856 -456 -457 -5026 5028 0
856 456 -457 5026 5028 0
856 -10 -51 3395 -3397 0
856 -10 51 3395 3397 0
856 10 -51 -3395 -3397 0
856 10 51 -3395 3397 0
856 -10 51 -3395 -3397 0
856 10 51 3395 -3397 0
856 -10 -51 -3395 3397 0
856 10 -51 3395 3397 0
856 -466 -467 5046 -5048 0
856 -466 467 5046 5048 0
856 466 -467 -5046 -5048 0
856 466 467 -5046 5048 0
856 -466 467 -5046 -5048 0
856 466 467 5046 -5048 0
856 -466 -467 -5046 5048 0
856 466 -467 5046 5048 0
856 441 -442 -443 -5034 0
856 441 -442 443 5034 0
856 -441 442 -443 -5034 0
856 -441 442 443 5034 0
856 -441 -442 443 -5034 0
856 441 442 443 -5034 0
856 -441 -442 -443 5034 0
856 441 442 -443 5034 0
856 -450 -461 5040 -5042 0
856 -450 461 5040 5042 0
856 450 -461 -5040 -5042 0
856 450 461 -5040 5042 0
856 -450 461 -5040 -5042 0
856 450 461 5040 -5042 0
856 -450 -461 -5040 5042 0
856 450 -461 5040 5042 0
856 -8 -9 3393 -3395 0
856 -8 9 3393 3395 0
856 8 -9 -3393 -3395 0
856 8 9 -3393 3395 0
856 -8 9 -3393 -3395 0
856 8 9 3393 -3395 0
856 -8 -9 -3393 3395 0
856 8 -9 3393 3395 0
856 -573 -621 1695 -1697 0
856 -573 621 1695 1697 0
856 573 -621 -1695 -1697 0
856 573 621 -1695 1697 0
856 -573 621 -1695 -1697 0
856 573 621 1695 -1697 0
856 -573 -621 -1695 1697 0
856 573 -621 1695 1697 0
856 -464 -465 5044 -5046 0
856 -464 465 5044 5046 0
856 464 -465 -5044 -5046 0
856 464 465 -5044 5046 0
856 -464 465 -5044 -5046 0
856 464 465 5044 -5046 0
856 -464 -465 -5044 5046 0
856 464 -465 5044 5046 0
856 -450 -451 5055 -5057 0
856 -450 451 5055 5057 0
856 450 -451 -5055 -5057 0
856 450 451 -5055 5057 0
856 -450 451 -5055 -5057 0
856 450 451 5055 -5057 0
856 -450 -451 -5055 5057 0
856 450 -451 5055 5057 0
856 -137 -138 3387 -3389 0
856 -137 138 3387 3389 0
856 137 -138 -3387 -3389 0
856 137 138 -3387 3389 0
856 -137 138 -3387 -3389 0
856 137 138 3387 -3389 0
856 -137 -138 -3387 3389 0
856 137 -138 3387 3389 0
856 -456 -458 5059 -5061 0
856 -456 458 5059 5061 0
856 456 -458 -5059 -5061 0
856 456 458 -5059 5061 0
856 -456 458 -5059 -5061 0
856 456 458 5059 -5061 0
856 -456 -458 -5059 5061 0
856 456 -458 5059 5061 0
856 -134 -135 3384 -3386 0
856 -134 135 3384 3386 0
856 134 -135 -3384 -3386 0
856 134 135 -3384 3386 0
856 -134 135 -3384 -3386 0
856 134 135 3384 -3386 0
856 -134 -135 -3384 3386 0
856 134 -135 3384 3386 0
856 -72 -90 2526 -2528 0
856 -72 90 2526 2528 0
856 72 -90 -2526 -2528 0
856 72 90 -2526 2528 0
856 -72 90 -2526 -2528 0
856 72 90 2526 -2528 0
856 -72 -90 -2526 2528 0
856 72 -90 2526 2528 0
856 -466 -467 5064 -5066 0
856 -466 467 5064 5066 0
856 466 -467 -5064 -5066 0
856 466 467 -5064 5066 0
856 -466 467 -5064 -5066 0
856 466 467 5064 -5066 0
856 -466 -467 -5064 5066 0
856 466 -467 5064 5066 0
856 105 -114 -128 -2709 0
856 105 -114 128 2709 0
856 -105 114 -128 -2709 0
856 -105 114 128 2709 0
856 -105 -114 128 -2709 0
856 105 114 128 -2709 0
856 -105 -114 -128 2709 0
856 105 114 -128 2709 0
856 -40 -131 3380 -3382 0
856 -40 131 3380 3382 0
856 40 -131 -3380 -3382 0
856 40 131 -3380 3382 0
856 -40 131 -3380 -3382 0
856 40 131 3380 -3382 0
856 -40 -131 -3380 3382 0
856 40 -131 3380 3382 0
856 -458 -459 5074 -5076 0
856 -458 459 5074 5076 0
856 458 -459 -5074 -5076 0
856 458 459 -5074 5076 0
856 -458 459 -5074 -5076 0
856 458 459 5074 -5076 0
856 -458 -459 -5074 5076 0
856 458 -459 5074 5076 0
856 -89 -91 2520 -2522 0
856 -89 91 2520 2522 0
856 89 -91 -2520 -2522 0
856 89 91 -2520 2522 0
856 -89 91 -2520 -2522 0
856 89 91 2520 -2522 0
856 -89 -91 -2520 2522 0
856 89 -91 2520 2522 0
856 -443 -444 5069 -5071 0
856 -443 444 5069 5071 0
856 443 -444 -5069 -5071 0
856 443 444 -5069 5071 0
856 -443 444 -5069 -5071 0
856 443 444 5069 -5071 0
856 -443 -444 -5069 5071 0
856 443 -444 5069 5071 0
856 -36 -37 3376 -3378 0
856 -36 37 3376 3378 0
856 36 -37 -3376 -3378 0
856 36 37 -3376 3378 0
856 -36 37 -3376 -3378 0
856 36 37 3376 -3378 0
856 -36 -37 -3376 3378 0
856 36 -37 3376 3378 0
856 -520 -562 1687 -1689 0
856 -520 562 1687 1689 0
856 520 -562 -1687 -1689 0
856 520 562 -1687 1689 0
856 -520 562 -1687 -1689 0
856 520 562 1687 -1689 0
856 -520 -562 -1687 1689 0
856 520 -562 1687 1689 0
856 -451 -455 5072 -5074 0
856 -451 455 5072 5074 0
856 451 -455 -5072 -5074 0
856 451 455 -5072 5074 0
856 -451 455 -5072 -5074 0
856 451 455 5072 -5074 0
856 -451 -455 -5072 5074 0
856 451 -455 5072 5074 0
856 -368 -369 4456 -4458 0
856 -368 369 4456 4458 0
856 368 -369 -4456 -4458 0
856 368 369 -4456 4458 0
856 -368 369 -4456 -4458 0
856 368 369 4456 -4458 0
856 -368 -369 -4456 4458 0
856 368 -369 4456 4458 0
856 -33 -34 3373 -3375 0
856 -33 34 3373 3375 0
856 33 -34 -3373 -3375 0
856 33 34 -3373 3375 0
856 -33 34 -3373 -3375 0
856 33 34 3373 -3375 0
856 -33 -34 -3373 3375 0
856 33 -34 3373 3375 0
856 -463 -464 5077 -5079 0
856 -463 464 5077 5079 0
856 463 -464 -5077 -5079 0
856 463 464 -5077 5079 0
856 -463 464 -5077 -5079 0
856 463 464 5077 -5079 0
856 -463 -464 -5077 5079 0
856 463 -464 5077 5079 0
856 491 -492 -493 -5086 0
856 491 -492 493 5086 0
856 -491 492 -493 -5086 0
856 -491 492 493 5086 0
856 -491 -492 493 -5086 0
856 491 492 493 -5086 0
856 -491 -492 -493 5086 0
856 491 492 -493 5086 0
856 369 -418 -462 -1687 0
856 369 -418 462 1687 0
856 -369 418 -462 -1687 0
856 -369 418 462 1687 0
856 -369 -418 462 -1687 0
856 369 418 462 -1687 0
856 -369 -418 -462 1687 0
856 369 418 -462 1687 0
856 -128 -129 3368 -3370 0
856 -128 129 3368 3370 0
856 128 -129 -3368 -3370 0
856 128 129 -3368 3370 0
856 -128 129 -3368 -3370 0
856 128 129 3368 -3370 0
856 -128 -129 -3368 3370 0
856 128 -129 3368 3370 0
856 -467 -469 5080 -5082 0
856 -467 469 5080 5082 0
856 467 -469 -5080 -5082 0
856 467 469 -5080 5082 0
856 -467 469 -5080 -5082 0
856 467 469 5080 -5082 0
856 -467 -469 -5080 5082 0
856 467 -469 5080 5082 0
856 -501 -502 5093 -5095 0
856 -501 502 5093 5095 0
856 501 -502 -5093 -5095 0
856 501 502 -5093 5095 0
856 -501 502 -5093 -5095 0
856 501 502 5093 -5095 0
856 -501 -502 -5093 5095 0
856 501 -502 5093 5095 0
856 -123 -124 3363 -3365 0
856 -123 124 3363 3365 0
856 123 -124 -3363 -3365 0
856 123 124 -3363 3365 0
856 -123 124 -3363 -3365 0
856 123 124 3363 -3365 0
856 -123 -124 -3363 3365 0
856 123 -124 3363 3365 0
856 -496 -497 5088 -5090 0
856 -496 497 5088 5090 0
856 496 -497 -5088 -5090 0
856 496 497 -5088 5090 0
856 -496 497 -5088 -5090 0
856 496 497 5088 -5090 0
856 -496 -497 -5088 5090 0
856 496 -497 5088 5090 0
856 -499 -500 5091 -5093 0
856 -499 500 5091 5093 0
856 499 -500 -5091 -5093 0
856 499 500 -5091 5093 0
856 -499 500 -5091 -5093 0
856 499 500 5091 -5093 0
856 -499 -500 -5091 5093 0
856 499 -500 5091 5093 0
856 -29 -30 3359 -3361 0
856 -29 30 3359 3361 0
856 29 -30 -3359 -3361 0
856 29 30 -3359 3361 0
856 -29 30 -3359 -3361 0
856 29 30 3359 -3361 0
856 -29 -30 -3359 3361 0
856 29 -30 3359 3361 0
856 -504 -505 5096 -5098 0
856 -504 505 5096 5098 0
856 504 -505 -5096 -5098 0
856 504 505 -5096 5098 0
856 -504 505 -5096 -5098 0
856 504 505 5096 -5098 0
856 -504 -505 -5096 5098 0
856 504 -505 5096 5098 0
856 -93 -277 2542 -2544 0
856 -93 277 2542 2544 0
856 93 -277 -2542 -2544 0
856 93 277 -2542 2544 0
856 -93 277 -2542 -2544 0
856 93 277 2542 -2544 0
856 -93 -277 -2542 2544 0
856 93 -277 2542 2544 0
856 -27 -28 3357 -3359 0
856 -27 28 3357 3359 0
856 27 -28 -3357 -3359 0
856 27 28 -3357 3359 0
856 -27 28 -3357 -3359 0
856 27 28 3357 -3359 0
856 -27 -28 -3357 3359 0
856 27 -28 3357 3359 0
856 -508 -509 5100 -5102 0
856 -508 509 5100 5102 0
856 508 -509 -5100 -5102 0
856 508 509 -5100 5102 0
856 -508 509 -5100 -5102 0
856 508 509 5100 -5102 0
856 -508 -509 -5100 5102 0
856 508 -509 5100 5102 0
856 -25 -26 3355 -3357 0
856 -25 26 3355 3357 0
856 25 -26 -3355 -3357 0
856 25 26 -3355 3357 0
856 -25 26 -3355 -3357 0
856 25 26 3355 -3357 0
856 -25 -26 -3355 3357 0
856 25 -26 3355 3357 0
856 -494 -495 5106 -5108 0
856 -494 495 5106 5108 0
856 494 -495 -5106 -5108 0
856 494 495 -5106 5108 0
856 -494 495 -5106 -5108 0
856 494 495 5106 -5108 0
856 -494 -495 -5106 5108 0
856 494 -495 5106 5108 0
856 21 -22 -23 -3354 0
856 21 -22 23 3354 0
856 -21 22 -23 -3354 0
856 -21 22 23 3354 0
856 -21 -22 23 -3354 0
856 21 22 23 -3354 0
856 -21 -22 -23 3354 0
856 21 22 -23 3354 0
856 -498 -499 5110 -5112 0
856 -498 499 5110 5112 0
856 498 -499 -5110 -5112 0
856 498 499 -5110 5112 0
856 -498 499 -5110 -5112 0
856 498 499 5110 -5112 0
856 -498 -499 -5110 5112 0
856 498 -499 5110 5112 0
856 -118 -119 3348 -3350 0
856 -118 119 3348 3350 0
856 118 -119 -3348 -3350 0
856 118 119 -3348 3350 0
856 -118 119 -3348 -3350 0
856 118 119 3348 -3350 0
856 -118 -119 -3348 3350 0
856 118 -119 3348 3350 0
856 -547 -548 5356 -5358 0
856 -547 548 5356 5358 0
856 547 -548 -5356 -5358 0
856 547 548 -5356 5358 0
856 -547 548 -5356 -5358 0
856 547 548 5356 -5358 0
856 -547 -548 -5356 5358 0
856 547 -548 5356 5358 0
856 -512 -513 5114 -5116 0
856 -512 513 5114 5116 0
856 512 -513 -5114 -5116 0
856 512 513 -5114 5116 0
856 -512 513 -5114 -5116 0
856 512 513 5114 -5116 0
856 -512 -513 -5114 5116 0
856 512 -513 5114 5116 0
856 110 -119 -123 -2674 0
856 110 -119 123 2674 0
856 -110 119 -123 -2674 0
856 -110 119 123 2674 0
856 -110 -119 123 -2674 0
856 110 119 123 -2674 0
856 -110 -119 -123 2674 0
856 110 119 -123 2674 0
856 -114 -115 3344 -3346 0
856 -114 115 3344 3346 0
856 114 -115 -3344 -3346 0
856 114 115 -3344 3346 0
856 -114 115 -3344 -3346 0
856 114 115 3344 -3346 0
856 -114 -115 -3344 3346 0
856 114 -115 3344 3346 0
856 367 -416 -470 -1673 0
856 367 -416 470 1673 0
856 -367 416 -470 -1673 0
856 -367 416 470 1673 0
856 -367 -416 470 -1673 0
856 367 416 470 -1673 0
856 -367 -416 -470 1673 0
856 367 416 -470 1673 0
856 -515 -516 5117 -5119 0
856 -515 516 5117 5119 0
856 515 -516 -5117 -5119 0
856 515 516 -5117 5119 0
856 -515 516 -5117 -5119 0
856 515 516 5117 -5119 0
856 -515 -516 -5117 5119 0
856 515 -516 5117 5119 0
856 -517 -541 5352 -5354 0
856 -517 541 5352 5354 0
856 517 -541 -5352 -5354 0
856 517 541 -5352 5354 0
856 -517 541 -5352 -5354 0
856 517 541 5352 -5354 0
856 -517 -541 -5352 5354 0
856 517 -541 5352 5354 0
856 -19 -20 3339 -3341 0
856 -19 20 3339 3341 0
856 19 -20 -3339 -3341 0
856 19 20 -3339 3341 0
856 -19 20 -3339 -3341 0
856 19 20 3339 -3341 0
856 -19 -20 -3339 3341 0
856 19 -20 3339 3341 0
856 -468 -520 1336 -1338 0
856 -468 520 1336 1338 0
856 468 -520 -1336 -1338 0
856 468 520 -1336 1338 0
856 -468 520 -1336 -1338 0
856 468 520 1336 -1338 0
856 -468 -520 -1336 1338 0
856 468 -520 1336 1338 0
856 364 -416 -469 -1274 0
856 364 -416 469 1274 0
856 -364 416 -469 -1274 0
856 -364 416 469 1274 0
856 -364 -416 469 -1274 0
856 364 416 469 -1274 0
856 -364 -416 -469 1274 0
856 364 416 -469 1274 0
856 -15 -16 3335 -3337 0
856 -15 16 3335 3337 0
856 15 -16 -3335 -3337 0
856 15 16 -3335 3337 0
856 -15 16 -3335 -3337 0
856 15 16 3335 -3337 0
856 -15 -16 -3335 3337 0
856 15 -16 3335 3337 0
856 -569 -629 1667 -1669 0
856 -569 629 1667 1669 0
856 569 -629 -1667 -1669 0
856 569 629 -1667 1669 0
856 -569 629 -1667 -1669 0
856 569 629 1667 -1669 0
856 -569 -629 -1667 1669 0
856 569 -629 1667 1669 0
856 -148 -252 2668 -2670 0
856 -148 252 2668 2670 0
856 148 -252 -2668 -2670 0
856 148 252 -2668 2670 0
856 -148 252 -2668 -2670 0
856 148 252 2668 -2670 0
856 -148 -252 -2668 2670 0
856 148 -252 2668 2670 0
856 11 -12 -13 -3334 0
856 11 -12 13 3334 0
856 -11 12 -13 -3334 0
856 -11 12 13 3334 0
856 -11 -12 13 -3334 0
856 11 12 13 -3334 0
856 -11 -12 -13 3334 0
856 11 12 -13 3334 0
856 103 -115 -128 -2667 0
856 103 -115 128 2667 0
856 -103 115 -128 -2667 0
856 -103 115 128 2667 0
856 -103 -115 128 -2667 0
856 103 115 128 -2667 0
856 -103 -115 -128 2667 0
856 103 115 -128 2667 0
856 -94 -278 2549 -2551 0
856 -94 278 2549 2551 0
856 94 -278 -2549 -2551 0
856 94 278 -2549 2551 0
856 -94 278 -2549 -2551 0
856 94 278 2549 -2551 0
856 -94 -278 -2549 2551 0
856 94 -278 2549 2551 0
856 59 -65 -77 -2548 0
856 59 -65 77 2548 0
856 -59 65 -77 -2548 0
856 -59 65 77 2548 0
856 -59 -65 77 -2548 0
856 59 65 77 -2548 0
856 -59 -65 -77 2548 0
856 59 65 -77 2548 0
856 -498 -501 5342 -5344 0
856 -498 501 5342 5344 0
856 498 -501 -5342 -5344 0
856 498 501 -5342 5344 0
856 -498 501 -5342 -5344 0
856 498 501 5342 -5344 0
856 -498 -501 -5342 5344 0
856 498 -501 5342 5344 0
856 -492 -493 5338 -5340 0
856 -492 493 5338 5340 0
856 492 -493 -5338 -5340 0
856 492 493 -5338 5340 0
856 -492 493 -5338 -5340 0
856 492 493 5338 -5340 0
856 -492 -493 -5338 5340 0
856 492 -493 5338 5340 0
856 -411 -414 5324 -5326 0
856 -411 414 5324 5326 0
856 411 -414 -5324 -5326 0
856 411 414 -5324 5326 0
856 -411 414 -5324 -5326 0
856 411 414 5324 -5326 0
856 -411 -414 -5324 5326 0
856 411 -414 5324 5326 0
856 -462 -463 5333 -5335 0
856 -462 463 5333 5335 0
856 462 -463 -5333 -5335 0
856 462 463 -5333 5335 0
856 -462 463 -5333 -5335 0
856 462 463 5333 -5335 0
856 -462 -463 -5333 5335 0
856 462 -463 5333 5335 0
856 -105 -106 3325 -3327 0
856 -105 106 3325 3327 0
856 105 -106 -3325 -3327 0
856 105 106 -3325 3327 0
856 -105 106 -3325 -3327 0
856 105 106 3325 -3327 0
856 -105 -106 -3325 3327 0
856 105 -106 3325 3327 0
856 -103 -104 3323 -3325 0
856 -103 104 3323 3325 0
856 103 -104 -3323 -3325 0
856 103 104 -3323 3325 0
856 -103 104 -3323 -3325 0
856 103 104 3323 -3325 0
856 -103 -104 -3323 3325 0
856 103 -104 3323 3325 0
856 -519 -567 1330 -1332 0
856 -519 567 1330 1332 0
856 519 -567 -1330 -1332 0
856 519 567 -1330 1332 0
856 -519 567 -1330 -1332 0
856 519 567 1330 -1332 0
856 -519 -567 -1330 1332 0
856 519 -567 1330 1332 0
856 -10 -101 3320 -3322 0
856 -10 101 3320 3322 0
856 10 -101 -3320 -3322 0
856 10 101 -3320 3322 0
856 -10 101 -3320 -3322 0
856 10 101 3320 -3322 0
856 -10 -101 -3320 3322 0
856 10 -101 3320 3322 0
856 -516 -568 1659 -1661 0
856 -516 568 1659 1661 0
856 516 -568 -1659 -1661 0
856 516 568 -1659 1661 0
856 -516 568 -1659 -1661 0
856 516 568 1659 -1661 0
856 -516 -568 -1659 1661 0
856 516 -568 1659 1661 0
856 -147 -251 2661 -2663 0
856 -147 251 2661 2663 0
856 147 -251 -2661 -2663 0
856 147 251 -2661 2663 0
856 -147 251 -2661 -2663 0
856 147 251 2661 -2663 0
856 -147 -251 -2661 2663 0
856 147 -251 2661 2663 0
856 -6 -7 3316 -3318 0
856 -6 7 3316 3318 0
856 6 -7 -3316 -3318 0
856 6 7 -3316 3318 0
856 -6 7 -3316 -3318 0
856 6 7 3316 -3318 0
856 -6 -7 -3316 3318 0
856 6 -7 3316 3318 0
856 102 -114 -127 -2660 0
856 102 -114 127 2660 0
856 -102 114 -127 -2660 0
856 -102 114 127 2660 0
856 -102 -114 127 -2660 0
856 102 114 127 -2660 0
856 -102 -114 -127 2660 0
856 102 114 -127 2660 0
856 -404 -405 5320 -5322 0
856 -404 405 5320 5322 0
856 404 -405 -5320 -5322 0
856 404 405 -5320 5322 0
856 -404 405 -5320 -5322 0
856 404 405 5320 -5322 0
856 -404 -405 -5320 5322 0
856 404 -405 5320 5322 0
856 1 -2 -3 -3314 0
856 1 -2 3 3314 0
856 -1 2 -3 -3314 0
856 -1 2 3 3314 0
856 -1 -2 3 -3314 0
856 1 2 3 -3314 0
856 -1 -2 -3 3314 0
856 1 2 -3 3314 0
856 -95 -279 2556 -2558 0
856 -95 279 2556 2558 0
856 95 -279 -2556 -2558 0
856 95 279 -2556 2558 0
856 -95 279 -2556 -2558 0
856 95 279 2556 -2558 0
856 -95 -279 -2556 2558 0
856 95 -279 2556 2558 0
856 342 -347 -348 -4384 0
856 342 -347 348 4384 0
856 -342 347 -348 -4384 0
856 -342 347 348 4384 0
856 -342 -347 348 -4384 0
856 342 347 348 -4384 0
856 -342 -347 -348 4384 0
856 342 347 -348 4384 0
856 -34 -42 2205 -2207 0
856 -34 42 2205 2207 0
856 34 -42 -2205 -2207 0
856 34 42 -2205 2207 0
856 -34 42 -2205 -2207 0
856 34 42 2205 -2207 0
856 -34 -42 -2205 2207 0
856 34 -42 2205 2207 0
856 -87 -88 3307 -3309 0
856 -87 88 3307 3309 0
856 87 -88 -3307 -3309 0
856 87 88 -3307 3309 0
856 -87 88 -3307 -3309 0
856 87 88 3307 -3309 0
856 -87 -88 -3307 3309 0
856 87 -88 3307 3309 0
856 -567 -627 1653 -1655 0
856 -567 627 1653 1655 0
856 567 -627 -1653 -1655 0
856 567 627 -1653 1655 0
856 -567 627 -1653 -1655 0
856 567 627 1653 -1655 0
856 -567 -627 -1653 1655 0
856 567 -627 1653 1655 0
856 -84 -85 3304 -3306 0
856 -84 85 3304 3306 0
856 84 -85 -3304 -3306 0
856 84 85 -3304 3306 0
856 -84 85 -3304 -3306 0
856 84 85 3304 -3306 0
856 -84 -85 -3304 3306 0
856 84 -85 3304 3306 0
856 -356 -361 5192 -5194 0
856 -356 361 5192 5194 0
856 356 -361 -5192 -5194 0
856 356 361 -5192 5194 0
856 -356 361 -5192 -5194 0
856 356 361 5192 -5194 0
856 -356 -361 -5192 5194 0
856 356 -361 5192 5194 0
856 -518 -519 5120 -5122 0
856 -518 519 5120 5122 0
856 518 -519 -5120 -5122 0
856 518 519 -5120 5122 0
856 -518 519 -5120 -5122 0
856 518 519 5120 -5122 0
856 -518 -519 -5120 5122 0
856 518 -519 5120 5122 0
856 -79 -86 2561 -2563 0
856 -79 86 2561 2563 0
856 79 -86 -2561 -2563 0
856 79 86 -2561 2563 0
856 -79 86 -2561 -2563 0
856 79 86 2561 -2563 0
856 -79 -86 -2561 2563 0
856 79 -86 2561 2563 0
856 -39 -40 3299 -3301 0
856 -39 40 3299 3301 0
856 39 -40 -3299 -3301 0
856 39 40 -3299 3301 0
856 -39 40 -3299 -3301 0
856 39 40 3299 -3301 0
856 -39 -40 -3299 3301 0
856 39 -40 3299 3301 0
856 -499 -500 5126 -5128 0
856 -499 500 5126 5128 0
856 499 -500 -5126 -5128 0
856 499 500 -5126 5128 0
856 -499 500 -5126 -5128 0
856 499 500 5126 -5128 0
856 -499 -500 -5126 5128 0
856 499 -500 5126 5128 0
856 -513 -516 5135 -5137 0
856 -513 516 5135 5137 0
856 513 -516 -5135 -5137 0
856 513 516 -5135 5137 0
856 -513 516 -5135 -5137 0
856 513 516 5135 -5137 0
856 -513 -516 -5135 5137 0
856 513 -516 5135 5137 0
856 -36 -37 3296 -3298 0
856 -36 37 3296 3298 0
856 36 -37 -3296 -3298 0
856 36 37 -3296 3298 0
856 -36 37 -3296 -3298 0
856 36 37 3296 -3298 0
856 -36 -37 -3296 3298 0
856 36 -37 3296 3298 0
856 -502 -503 5129 -5131 0
856 -502 503 5129 5131 0
856 502 -503 -5129 -5131 0
856 502 503 -5129 5131 0
856 -502 503 -5129 -5131 0
856 502 503 5129 -5131 0
856 -502 -503 -5129 5131 0
856 502 -503 5129 5131 0
856 -509 -511 5133 -5135 0
856 -509 511 5133 5135 0
856 509 -511 -5133 -5135 0
856 509 511 -5133 5135 0
856 -509 511 -5133 -5135 0
856 509 511 5133 -5135 0
856 -509 -511 -5133 5135 0
856 509 -511 5133 5135 0
856 -33 -34 3293 -3295 0
856 -33 34 3293 3295 0
856 33 -34 -3293 -3295 0
856 33 34 -3293 3295 0
856 -33 34 -3293 -3295 0
856 33 34 3293 -3295 0
856 -33 -34 -3293 3295 0
856 33 -34 3293 3295 0
856 -566 -626 1646 -1648 0
856 -566 626 1646 1648 0
856 566 -626 -1646 -1648 0
856 566 626 -1646 1648 0
856 -566 626 -1646 -1648 0
856 566 626 1646 -1648 0
856 -566 -626 -1646 1648 0
856 566 -626 1646 1648 0
856 -126 -134 2694 -2696 0
856 -126 134 2694 2696 0
856 126 -134 -2694 -2696 0
856 126 134 -2694 2696 0
856 -126 134 -2694 -2696 0
856 126 134 2694 -2696 0
856 -126 -134 -2694 2696 0
856 126 -134 2694 2696 0
856 -78 -79 3288 -3290 0
856 -78 79 3288 3290 0
856 78 -79 -3288 -3290 0
856 78 79 -3288 3290 0
856 -78 79 -3288 -3290 0
856 78 79 3288 -3290 0
856 -78 -79 -3288 3290 0
856 78 -79 3288 3290 0
856 -365 -366 5196 -5198 0
856 -365 366 5196 5198 0
856 365 -366 -5196 -5198 0
856 365 366 -5196 5198 0
856 -365 366 -5196 -5198 0
856 365 366 5196 -5198 0
856 -365 -366 -5196 5198 0
856 365 -366 5196 5198 0
856 -497 -501 5143 -5145 0
856 -497 501 5143 5145 0
856 497 -501 -5143 -5145 0
856 497 501 -5143 5145 0
856 -497 501 -5143 -5145 0
856 497 501 5143 -5145 0
856 -497 -501 -5143 5145 0
856 497 -501 5143 5145 0
856 -74 -75 3284 -3286 0
856 -74 75 3284 3286 0
856 74 -75 -3284 -3286 0
856 74 75 -3284 3286 0
856 -74 75 -3284 -3286 0
856 74 75 3284 -3286 0
856 -74 -75 -3284 3286 0
856 74 -75 3284 3286 0
856 -495 -496 5141 -5143 0
856 -495 496 5141 5143 0
856 495 -496 -5141 -5143 0
856 495 496 -5141 5143 0
856 -495 496 -5141 -5143 0
856 495 496 5141 -5143 0
856 -495 -496 -5141 5143 0
856 495 -496 5141 5143 0
856 491 -492 -493 -5156 0
856 491 -492 493 5156 0
856 -491 492 -493 -5156 0
856 -491 492 493 5156 0
856 -491 -492 493 -5156 0
856 491 492 493 -5156 0
856 -491 -492 -493 5156 0
856 491 492 -493 5156 0
856 -506 -508 5146 -5148 0
856 -506 508 5146 5148 0
856 506 -508 -5146 -5148 0
856 506 508 -5146 5148 0
856 -506 508 -5146 -5148 0
856 506 508 5146 -5148 0
856 -506 -508 -5146 5148 0
856 506 -508 5146 5148 0
856 -30 -71 3280 -3282 0
856 -30 71 3280 3282 0
856 30 -71 -3280 -3282 0
856 30 71 -3280 3282 0
856 -30 71 -3280 -3282 0
856 30 71 3280 -3282 0
856 -30 -71 -3280 3282 0
856 30 -71 3280 3282 0
856 -565 -625 1639 -1641 0
856 -565 625 1639 1641 0
856 565 -625 -1639 -1641 0
856 565 625 -1639 1641 0
856 -565 625 -1639 -1641 0
856 565 625 1639 -1641 0
856 -565 -625 -1639 1641 0
856 565 -625 1639 1641 0
856 -26 -27 3276 -3278 0
856 -26 27 3276 3278 0
856 26 -27 -3276 -3278 0
856 26 27 -3276 3278 0
856 -26 27 -3276 -3278 0
856 26 27 3276 -3278 0
856 -26 -27 -3276 3278 0
856 26 -27 3276 3278 0
856 -517 -518 5150 -5152 0
856 -517 518 5150 5152 0
856 517 -518 -5150 -5152 0
856 517 518 -5150 5152 0
856 -517 518 -5150 -5152 0
856 517 518 5150 -5152 0
856 -517 -518 -5150 5152 0
856 517 -518 5150 5152 0
856 9 -11 -24 -2219 0
856 9 -11 24 2219 0
856 -9 11 -24 -2219 0
856 -9 11 24 2219 0
856 -9 -11 24 -2219 0
856 9 11 24 -2219 0
856 -9 -11 -24 2219 0
856 9 11 -24 2219 0
856 -509 -512 5161 -5163 0
856 -509 512 5161 5163 0
856 509 -512 -5161 -5163 0
856 509 512 -5161 5163 0
856 -509 512 -5161 -5163 0
856 509 512 5161 -5163 0
856 -509 -512 -5161 5163 0
856 509 -512 5161 5163 0
856 21 -22 -23 -3274 0
856 21 -22 23 3274 0
856 -21 22 -23 -3274 0
856 -21 22 23 3274 0
856 -21 -22 23 -3274 0
856 21 22 23 -3274 0
856 -21 -22 -23 3274 0
856 21 22 -23 3274 0
856 362 -411 -465 -1638 0
856 362 -411 465 1638 0
856 -362 411 -465 -1638 0
856 -362 411 465 1638 0
856 -362 -411 465 -1638 0
856 362 411 465 -1638 0
856 -362 -411 -465 1638 0
856 362 411 -465 1638 0
856 -24 -25 3274 -3276 0
856 -24 25 3274 3276 0
856 24 -25 -3274 -3276 0
856 24 25 -3274 3276 0
856 -24 25 -3274 -3276 0
856 24 25 3274 -3276 0
856 -24 -25 -3274 3276 0
856 24 -25 3274 3276 0
856 -494 -498 5156 -5158 0
856 -494 498 5156 5158 0
856 494 -498 -5156 -5158 0
856 494 498 -5156 5158 0
856 -494 498 -5156 -5158 0
856 494 498 5156 -5158 0
856 -494 -498 -5156 5158 0
856 494 -498 5156 5158 0
856 -67 -68 3267 -3269 0
856 -67 68 3267 3269 0
856 67 -68 -3267 -3269 0
856 67 68 -3267 3269 0
856 -67 68 -3267 -3269 0
856 67 68 3267 -3269 0
856 -67 -68 -3267 3269 0
856 67 -68 3267 3269 0
856 -88 -98 2576 -2578 0
856 -88 98 2576 2578 0
856 88 -98 -2576 -2578 0
856 88 98 -2576 2578 0
856 -88 98 -2576 -2578 0
856 88 98 2576 -2578 0
856 -88 -98 -2576 2578 0
856 88 -98 2576 2578 0
856 -505 -508 5159 -5161 0
856 -505 508 5159 5161 0
856 505 -508 -5159 -5161 0
856 505 508 -5159 5161 0
856 -505 508 -5159 -5161 0
856 505 508 5159 -5161 0
856 -505 -508 -5159 5161 0
856 505 -508 5159 5161 0
856 -63 -64 3263 -3265 0
856 -63 64 3263 3265 0
856 63 -64 -3263 -3265 0
856 63 64 -3263 3265 0
856 -63 64 -3263 -3265 0
856 63 64 3263 -3265 0
856 -63 -64 -3263 3265 0
856 63 -64 3263 3265 0
856 -514 -516 5164 -5166 0
856 -514 516 5164 5166 0
856 514 -516 -5164 -5166 0
856 514 516 -5164 5166 0
856 -514 516 -5164 -5166 0
856 514 516 5164 -5166 0
856 -514 -516 -5164 5166 0
856 514 -516 5164 5166 0
856 54 -70 -72 -2583 0
856 54 -70 72 2583 0
856 -54 70 -72 -2583 0
856 -54 70 72 2583 0
856 -54 -70 72 -2583 0
856 54 70 72 -2583 0
856 -54 -70 -72 2583 0
856 54 70 -72 2583 0
856 -494 -495 5171 -5173 0
856 -494 495 5171 5173 0
856 494 -495 -5171 -5173 0
856 494 495 -5171 5173 0
856 -494 495 -5171 -5173 0
856 494 495 5171 -5173 0
856 -494 -495 -5171 5173 0
856 494 -495 5171 5173 0
856 -61 -62 3261 -3263 0
856 -61 62 3261 3263 0
856 61 -62 -3261 -3263 0
856 61 62 -3261 3263 0
856 -61 62 -3261 -3263 0
856 61 62 3261 -3263 0
856 -61 -62 -3261 3263 0
856 61 -62 3261 3263 0
856 -19 -20 3259 -3261 0
856 -19 20 3259 3261 0
856 19 -20 -3259 -3261 0
856 19 20 -3259 3261 0
856 -19 20 -3259 -3261 0
856 19 20 3259 -3261 0
856 -19 -20 -3259 3261 0
856 19 -20 3259 3261 0
856 -350 -351 5190 -5192 0
856 -350 351 5190 5192 0
856 350 -351 -5190 -5192 0
856 350 351 -5190 5192 0
856 -350 351 -5190 -5192 0
856 350 351 5190 -5192 0
856 -350 -351 -5190 5192 0
856 350 -351 5190 5192 0
856 -16 -17 3256 -3258 0
856 -16 17 3256 3258 0
856 16 -17 -3256 -3258 0
856 16 17 -3256 3258 0
856 -16 17 -3256 -3258 0
856 16 17 3256 -3258 0
856 -16 -17 -3256 3258 0
856 16 -17 3256 3258 0
856 -508 -511 5179 -5181 0
856 -508 511 5179 5181 0
856 508 -511 -5179 -5181 0
856 508 511 -5179 5181 0
856 -508 511 -5179 -5181 0
856 508 511 5179 -5181 0
856 -508 -511 -5179 5181 0
856 508 -511 5179 5181 0
856 -501 -503 5174 -5176 0
856 -501 503 5174 5176 0
856 501 -503 -5174 -5176 0
856 501 503 -5174 5176 0
856 -501 503 -5174 -5176 0
856 501 503 5174 -5176 0
856 -501 -503 -5174 5176 0
856 501 -503 5174 5176 0
856 -505 -507 5177 -5179 0
856 -505 507 5177 5179 0
856 505 -507 -5177 -5179 0
856 505 507 -5177 5179 0
856 -505 507 -5177 -5179 0
856 505 507 5177 -5179 0
856 -505 -507 -5177 5179 0
856 505 -507 5177 5179 0
856 11 -12 -13 -3254 0
856 11 -12 13 3254 0
856 -11 12 -13 -3254 0
856 -11 12 13 3254 0
856 -11 -12 13 -3254 0
856 11 12 13 -3254 0
856 -11 -12 -13 3254 0
856 11 12 -13 3254 0
856 -361 -362 4436 -4438 0
856 -361 362 4436 4438 0
856 361 -362 -4436 -4438 0
856 361 362 -4436 4438 0
856 -361 362 -4436 -4438 0
856 361 362 4436 -4438 0
856 -361 -362 -4436 4438 0
856 361 -362 4436 4438 0
856 -58 -59 3248 -3250 0
856 -58 59 3248 3250 0
856 58 -59 -3248 -3250 0
856 58 59 -3248 3250 0
856 -58 59 -3248 -3250 0
856 58 59 3248 -3250 0
856 -58 -59 -3248 3250 0
856 58 -59 3248 3250 0
856 -516 -519 5182 -5184 0
856 -516 519 5182 5184 0
856 516 -519 -5182 -5184 0
856 516 519 -5182 5184 0
856 -516 519 -5182 -5184 0
856 516 519 5182 -5184 0
856 -516 -519 -5182 5184 0
856 516 -519 5182 5184 0
856 -347 -348 5188 -5190 0
856 -347 348 5188 5190 0
856 347 -348 -5188 -5190 0
856 347 348 -5188 5190 0
856 -347 348 -5188 -5190 0
856 347 348 5188 -5190 0
856 -347 -348 -5188 5190 0
856 347 -348 5188 5190 0
856 -442 -443 5273 -5275 0
856 -442 443 5273 5275 0
856 442 -443 -5273 -5275 0
856 442 443 -5273 5275 0
856 -442 443 -5273 -5275 0
856 442 443 5273 -5275 0
856 -442 -443 -5273 5275 0
856 442 -443 5273 5275 0
856 -55 -56 3245 -3247 0
856 -55 56 3245 3247 0
856 55 -56 -3245 -3247 0
856 55 56 -3245 3247 0
856 -55 56 -3245 -3247 0
856 55 56 3245 -3247 0
856 -55 -56 -3245 3247 0
856 55 -56 3245 3247 0
856 370 -419 -463 -1624 0
856 370 -419 463 1624 0
856 -370 419 -463 -1624 0
856 -370 419 463 1624 0
856 -370 -419 463 -1624 0
856 370 419 463 -1624 0
856 -370 -419 -463 1624 0
856 370 419 -463 1624 0
856 -391 -393 5199 -5201 0
856 -391 393 5199 5201 0
856 391 -393 -5199 -5201 0
856 391 393 -5199 5201 0
856 -391 393 -5199 -5201 0
856 391 393 5199 -5201 0
856 -391 -393 -5199 5201 0
856 391 -393 5199 5201 0
856 -363 -364 5194 -5196 0
856 -363 364 5194 5196 0
856 363 -364 -5194 -5196 0
856 363 364 -5194 5196 0
856 -363 364 -5194 -5196 0
856 363 364 5194 -5196 0
856 -363 -364 -5194 5196 0
856 363 -364 5194 5196 0
856 -10 -51 3240 -3242 0
856 -10 51 3240 3242 0
856 10 -51 -3240 -3242 0
856 10 51 -3240 3242 0
856 -10 51 -3240 -3242 0
856 10 51 3240 -3242 0
856 -10 -51 -3240 3242 0
856 10 -51 3240 3242 0
856 -467 -469 5227 -5229 0
856 -467 469 5227 5229 0
856 467 -469 -5227 -5229 0
856 467 469 -5227 5229 0
856 -467 469 -5227 -5229 0
856 467 469 5227 -5229 0
856 -467 -469 -5227 5229 0
856 467 -469 5227 5229 0
856 -5 -6 3235 -3237 0
856 -5 6 3235 3237 0
856 5 -6 -3235 -3237 0
856 5 6 -3235 3237 0
856 -5 6 -3235 -3237 0
856 5 6 3235 -3237 0
856 -5 -6 -3235 3237 0
856 5 -6 3235 3237 0
856 -552 -625 1618 -1620 0
856 -552 625 1618 1620 0
856 552 -625 -1618 -1620 0
856 552 625 -1618 1620 0
856 -552 625 -1618 -1620 0
856 552 625 1618 -1620 0
856 -552 -625 -1618 1620 0
856 552 -625 1618 1620 0
856 -414 -417 5208 -5210 0
856 -414 417 5208 5210 0
856 414 -417 -5208 -5210 0
856 414 417 -5208 5210 0
856 -414 417 -5208 -5210 0
856 414 417 5208 -5210 0
856 -414 -417 -5208 5210 0
856 414 -417 5208 5210 0
856 -400 -402 5202 -5204 0
856 -400 402 5202 5204 0
856 400 -402 -5202 -5204 0
856 400 402 -5202 5204 0
856 -400 402 -5202 -5204 0
856 400 402 5202 -5204 0
856 -400 -402 -5202 5204 0
856 400 -402 5202 5204 0
856 1 -2 -3 -3234 0
856 1 -2 3 3234 0
856 -1 2 -3 -3234 0
856 -1 2 3 3234 0
856 -1 -2 3 -3234 0
856 1 2 3 -3234 0
856 -1 -2 -3 3234 0
856 1 2 -3 3234 0
856 -406 -409 5206 -5208 0
856 -406 409 5206 5208 0
856 406 -409 -5206 -5208 0
856 406 409 -5206 5208 0
856 -406 409 -5206 -5208 0
856 406 409 5206 -5208 0
856 -406 -409 -5206 5208 0
856 406 -409 5206 5208 0
856 -354 -355 4432 -4434 0
856 -354 355 4432 4434 0
856 354 -355 -4432 -4434 0
856 354 355 -4432 4434 0
856 -354 355 -4432 -4434 0
856 354 355 4432 -4434 0
856 -354 -355 -4432 4434 0
856 354 -355 4432 4434 0
856 -442 -445 5211 -5213 0
856 -442 445 5211 5213 0
856 442 -445 -5211 -5213 0
856 442 445 -5211 5213 0
856 -442 445 -5211 -5213 0
856 442 445 5211 -5213 0
856 -442 -445 -5211 5213 0
856 442 -445 5211 5213 0
856 104 -116 -129 -2604 0
856 104 -116 129 2604 0
856 -104 116 -129 -2604 0
856 -104 116 129 2604 0
856 -104 -116 129 -2604 0
856 104 116 129 -2604 0
856 -104 -116 -129 2604 0
856 104 116 -129 2604 0
856 -450 -451 5216 -5218 0
856 -450 451 5216 5218 0
856 450 -451 -5216 -5218 0
856 450 451 -5216 5218 0
856 -450 451 -5216 -5218 0
856 450 451 5216 -5218 0
856 -450 -451 -5216 5218 0
856 450 -451 5216 5218 0
856 -231 -241 3227 -3229 0
856 -231 241 3227 3229 0
856 231 -241 -3227 -3229 0
856 231 241 -3227 3229 0
856 -231 241 -3227 -3229 0
856 231 241 3227 -3229 0
856 -231 -241 -3227 3229 0
856 231 -241 3227 3229 0
856 -447 -449 5214 -5216 0
856 -447 449 5214 5216 0
856 447 -449 -5214 -5216 0
856 447 449 -5214 5216 0
856 -447 449 -5214 -5216 0
856 447 449 5214 -5216 0
856 -447 -449 -5214 5216 0
856 447 -449 5214 5216 0
856 206 -212 -224 -3227 0
856 206 -212 224 3227 0
856 -206 212 -224 -3227 0
856 -206 212 224 3227 0
856 -206 -212 224 -3227 0
856 206 212 224 -3227 0
856 -206 -212 -224 3227 0
856 206 212 -224 3227 0
856 -461 -466 5225 -5227 0
856 -461 466 5225 5227 0
856 461 -466 -5225 -5227 0
856 461 466 -5225 5227 0
856 -461 466 -5225 -5227 0
856 461 466 5225 -5227 0
856 -461 -466 -5225 5227 0
856 461 -466 5225 5227 0
856 -454 -456 5220 -5222 0
856 -454 456 5220 5222 0
856 454 -456 -5220 -5222 0
856 454 456 -5220 5222 0
856 -454 456 -5220 -5222 0
856 454 456 5220 -5222 0
856 -454 -456 -5220 5222 0
856 454 -456 5220 5222 0
856 -458 -459 5223 -5225 0
856 -458 459 5223 5225 0
856 458 -459 -5223 -5225 0
856 458 459 -5223 5225 0
856 -458 459 -5223 -5225 0
856 458 459 5223 -5225 0
856 -458 -459 -5223 5225 0
856 458 -459 5223 5225 0
856 -240 -250 3220 -3222 0
856 -240 250 3220 3222 0
856 240 -250 -3220 -3222 0
856 240 250 -3220 3222 0
856 -240 250 -3220 -3222 0
856 240 250 3220 -3222 0
856 -240 -250 -3220 3222 0
856 240 -250 3220 3222 0
856 -509 -551 1610 -1612 0
856 -509 551 1610 1612 0
856 509 -551 -1610 -1612 0
856 509 551 -1610 1612 0
856 -509 551 -1610 -1612 0
856 509 551 1610 -1612 0
856 -509 -551 -1610 1612 0
856 509 -551 1610 1612 0
856 -466 -518 1322 -1324 0
856 -466 518 1322 1324 0
856 466 -518 -1322 -1324 0
856 466 518 -1322 1324 0
856 -466 518 -1322 -1324 0
856 466 518 1322 -1324 0
856 -466 -518 -1322 1324 0
856 466 -518 1322 1324 0
856 105 -117 -130 -2611 0
856 105 -117 130 2611 0
856 -105 117 -130 -2611 0
856 -105 117 130 2611 0
856 -105 -117 130 -2611 0
856 105 117 130 -2611 0
856 -105 -117 -130 2611 0
856 105 117 -130 2611 0
856 -542 -545 5229 -5231 0
856 -542 545 5229 5231 0
856 542 -545 -5229 -5231 0
856 542 545 -5229 5231 0
856 -542 545 -5229 -5231 0
856 542 545 5229 -5231 0
856 -542 -545 -5229 5231 0
856 542 -545 5229 5231 0
856 -550 -551 5234 -5236 0
856 -550 551 5234 5236 0
856 550 -551 -5234 -5236 0
856 550 551 -5234 5236 0
856 -550 551 -5234 -5236 0
856 550 551 5234 -5236 0
856 -550 -551 -5234 5236 0
856 550 -551 5234 5236 0
856 -547 -549 5232 -5234 0
856 -547 549 5232 5234 0
856 547 -549 -5232 -5234 0
856 547 549 -5232 5234 0
856 -547 549 -5232 -5234 0
856 547 549 5232 -5234 0
856 -547 -549 -5232 5234 0
856 547 -549 5232 5234 0
856 -222 -239 3212 -3214 0
856 -222 239 3212 3214 0
856 222 -239 -3212 -3214 0
856 222 239 -3212 3214 0
856 -222 239 -3212 -3214 0
856 222 239 3212 -3214 0
856 -222 -239 -3212 3214 0
856 222 -239 3212 3214 0
856 -561 -566 5243 -5245 0
856 -561 566 5243 5245 0
856 561 -566 -5243 -5245 0
856 561 566 -5243 5245 0
856 -561 566 -5243 -5245 0
856 561 566 5243 -5245 0
856 -561 -566 -5243 5245 0
856 561 -566 5243 5245 0
856 -553 -554 5237 -5239 0
856 -553 554 5237 5239 0
856 553 -554 -5237 -5239 0
856 553 554 -5237 5239 0
856 -553 554 -5237 -5239 0
856 553 554 5237 -5239 0
856 -553 -554 -5237 5239 0
856 553 -554 5237 5239 0
856 -558 -559 5241 -5243 0
856 -558 559 5241 5243 0
856 558 -559 -5241 -5243 0
856 558 559 -5241 5243 0
856 -558 559 -5241 -5243 0
856 558 559 5241 -5243 0
856 -558 -559 -5241 5243 0
856 558 -559 5241 5243 0
856 -558 -561 5292 -5294 0
856 -558 561 5292 5294 0
856 558 -561 -5292 -5294 0
856 558 561 -5292 5294 0
856 -558 561 -5292 -5294 0
856 558 561 5292 -5294 0
856 -558 -561 -5292 5294 0
856 558 -561 5292 5294 0
856 341 -343 -344 -5376 0
856 341 -343 344 5376 0
856 -341 343 -344 -5376 0
856 -341 343 344 5376 0
856 -341 -343 344 -5376 0
856 341 343 344 -5376 0
856 -341 -343 -344 5376 0
856 341 343 -344 5376 0
856 203 -219 -221 -3206 0
856 203 -219 221 3206 0
856 -203 219 -221 -3206 0
856 -203 219 221 3206 0
856 -203 -219 221 -3206 0
856 203 219 221 -3206 0
856 -203 -219 -221 3206 0
856 203 219 -221 3206 0
856 -460 -508 1602 -1604 0
856 -460 508 1602 1604 0
856 460 -508 -1602 -1604 0
856 460 508 -1602 1604 0
856 -460 508 -1602 -1604 0
856 460 508 1602 -1604 0
856 -460 -508 -1602 1604 0
856 460 -508 1602 1604 0
856 -133 -141 2618 -2620 0
856 -133 141 2618 2620 0
856 133 -141 -2618 -2620 0
856 133 141 -2618 2620 0
856 -133 141 -2618 -2620 0
856 133 141 2618 -2620 0
856 -133 -141 -2618 2620 0
856 133 -141 2618 2620 0
856 -567 -569 5245 -5247 0
856 -567 569 5245 5247 0
856 567 -569 -5245 -5247 0
856 567 569 -5245 5247 0
856 -567 569 -5245 -5247 0
856 567 569 5245 -5247 0
856 -567 -569 -5245 5247 0
856 567 -569 5245 5247 0
856 -464 -516 1308 -1310 0
856 -464 516 1308 1310 0
856 464 -516 -1308 -1310 0
856 464 516 -1308 1310 0
856 -464 516 -1308 -1310 0
856 464 516 1308 -1310 0
856 -464 -516 -1308 1310 0
856 464 -516 1308 1310 0
856 -125 -137 2645 -2647 0
856 -125 137 2645 2647 0
856 125 -137 -2645 -2647 0
856 125 137 -2645 2647 0
856 -125 137 -2645 -2647 0
856 125 137 2645 -2647 0
856 -125 -137 -2645 2647 0
856 125 -137 2645 2647 0
856 -145 -259 2647 -2649 0
856 -145 259 2647 2649 0
856 145 -259 -2647 -2649 0
856 145 259 -2647 2649 0
856 -145 259 -2647 -2649 0
856 145 259 2647 -2649 0
856 -145 -259 -2647 2649 0
856 145 -259 2647 2649 0
856 202 -218 -230 -3199 0
856 202 -218 230 3199 0
856 -202 218 -230 -3199 0
856 -202 218 230 3199 0
856 -202 -218 230 -3199 0
856 202 218 230 -3199 0
856 -202 -218 -230 3199 0
856 202 218 -230 3199 0
856 -559 -622 1597 -1599 0
856 -559 622 1597 1599 0
856 559 -622 -1597 -1599 0
856 559 622 -1597 1599 0
856 -559 622 -1597 -1599 0
856 559 622 1597 -1599 0
856 -559 -622 -1597 1599 0
856 559 -622 1597 1599 0
856 -236 -246 3192 -3194 0
856 -236 246 3192 3194 0
856 236 -246 -3192 -3194 0
856 236 246 -3192 3194 0
856 -236 246 -3192 -3194 0
856 236 246 3192 -3194 0
856 -236 -246 -3192 3194 0
856 236 -246 3192 3194 0
856 -459 -507 1595 -1597 0
856 -459 507 1595 1597 0
856 459 -507 -1595 -1597 0
856 459 507 -1595 1597 0
856 -459 507 -1595 -1597 0
856 459 507 1595 -1597 0
856 -459 -507 -1595 1597 0
856 459 -507 1595 1597 0
856 343 -345 -346 -4414 0
856 343 -345 346 4414 0
856 -343 345 -346 -4414 0
856 -343 345 346 4414 0
856 -343 -345 346 -4414 0
856 343 345 346 -4414 0
856 -343 -345 -346 4414 0
856 343 345 -346 4414 0
856 -395 -396 5316 -5318 0
856 -395 396 5316 5318 0
856 395 -396 -5316 -5318 0
856 395 396 -5316 5318 0
856 -395 396 -5316 -5318 0
856 395 396 5316 -5318 0
856 -395 -396 -5316 5318 0
856 395 -396 5316 5318 0
856 -228 -235 3184 -3186 0
856 -228 235 3184 3186 0
856 228 -235 -3184 -3186 0
856 228 235 -3184 3186 0
856 -228 235 -3184 -3186 0
856 228 235 3184 -3186 0
856 -228 -235 -3184 3186 0
856 228 -235 3184 3186 0
856 -397 -398 5262 -5264 0
856 -397 398 5262 5264 0
856 397 -398 -5262 -5264 0
856 397 398 -5262 5264 0
856 -397 398 -5262 -5264 0
856 397 398 5262 -5264 0
856 -397 -398 -5262 5264 0
856 397 -398 5262 5264 0
856 -354 -355 5253 -5255 0
856 -354 355 5253 5255 0
856 354 -355 -5253 -5255 0
856 354 355 -5253 5255 0
856 -354 355 -5253 -5255 0
856 354 355 5253 -5255 0
856 -354 -355 -5253 5255 0
856 354 -355 5253 5255 0
856 -345 -348 5251 -5253 0
856 -345 348 5251 5253 0
856 345 -348 -5251 -5253 0
856 345 348 -5251 5253 0
856 -345 348 -5251 -5253 0
856 345 348 5251 -5253 0
856 -345 -348 -5251 5253 0
856 345 -348 5251 5253 0
856 -89 -99 2583 -2585 0
856 -89 99 2583 2585 0
856 89 -99 -2583 -2585 0
856 89 99 -2583 2585 0
856 -89 99 -2583 -2585 0
856 89 99 2583 -2585 0
856 -89 -99 -2583 2585 0
856 89 -99 2583 2585 0
856 -456 -458 5279 -5281 0
856 -456 458 5279 5281 0
856 456 -458 -5279 -5281 0
856 456 458 -5279 5281 0
856 -456 458 -5279 -5281 0
856 456 458 5279 -5281 0
856 -456 -458 -5279 5281 0
856 456 -458 5279 5281 0
856 -359 -362 5256 -5258 0
856 -359 362 5256 5258 0
856 359 -362 -5256 -5258 0
856 359 362 -5256 5258 0
856 -359 362 -5256 -5258 0
856 359 362 5256 -5258 0
856 -359 -362 -5256 5258 0
856 359 -362 5256 5258 0
856 209 -215 -227 -3178 0
856 209 -215 227 3178 0
856 -209 215 -227 -3178 0
856 -209 215 227 3178 0
856 -209 -215 227 -3178 0
856 209 215 227 -3178 0
856 -209 -215 -227 3178 0
856 209 215 -227 3178 0
856 355 -404 -458 -1589 0
856 355 -404 458 1589 0
856 -355 404 -458 -1589 0
856 -355 404 458 1589 0
856 -355 -404 458 -1589 0
856 355 404 458 -1589 0
856 -355 -404 -458 1589 0
856 355 404 -458 1589 0
856 -124 -136 2638 -2640 0
856 -124 136 2638 2640 0
856 124 -136 -2638 -2640 0
856 124 136 -2638 2640 0
856 -124 136 -2638 -2640 0
856 124 136 2638 -2640 0
856 -124 -136 -2638 2640 0
856 124 -136 2638 2640 0
856 -369 -394 5260 -5262 0
856 -369 394 5260 5262 0
856 369 -394 -5260 -5262 0
856 369 394 -5260 5262 0
856 -369 394 -5260 -5262 0
856 369 394 5260 -5262 0
856 -369 -394 -5260 5262 0
856 369 -394 5260 5262 0
856 -233 -243 3171 -3173 0
856 -233 243 3171 3173 0
856 233 -243 -3171 -3173 0
856 233 243 -3171 3173 0
856 -233 243 -3171 -3173 0
856 233 243 3171 -3173 0
856 -233 -243 -3171 3173 0
856 233 -243 3171 3173 0
856 -412 -413 5269 -5271 0
856 -412 413 5269 5271 0
856 412 -413 -5269 -5271 0
856 412 413 -5269 5271 0
856 -412 413 -5269 -5271 0
856 412 413 5269 -5271 0
856 -412 -413 -5269 5271 0
856 412 -413 5269 5271 0
856 -399 -400 5264 -5266 0
856 -399 400 5264 5266 0
856 399 -400 -5264 -5266 0
856 399 400 -5264 5266 0
856 -399 400 -5264 -5266 0
856 399 400 5264 -5266 0
856 -399 -400 -5264 5266 0
856 399 -400 5264 5266 0
856 -465 -517 1315 -1317 0
856 -465 517 1315 1317 0
856 465 -517 -1315 -1317 0
856 465 517 -1315 1317 0
856 -465 517 -1315 -1317 0
856 465 517 1315 -1317 0
856 -465 -517 -1315 1317 0
856 465 -517 1315 1317 0
856 -404 -406 5267 -5269 0
856 -404 406 5267 5269 0
856 404 -406 -5267 -5269 0
856 404 406 -5267 5269 0
856 -404 406 -5267 -5269 0
856 404 406 5267 -5269 0
856 -404 -406 -5267 5269 0
856 404 -406 5267 5269 0
856 -415 -417 5271 -5273 0
856 -415 417 5271 5273 0
856 415 -417 -5271 -5273 0
856 415 417 -5271 5273 0
856 -415 417 -5271 -5273 0
856 415 417 5271 -5273 0
856 -415 -417 -5271 5273 0
856 415 -417 5271 5273 0
856 -453 -454 5277 -5279 0
856 -453 454 5277 5279 0
856 453 -454 -5277 -5279 0
856 453 454 -5277 5279 0
856 -453 454 -5277 -5279 0
856 453 454 5277 -5279 0
856 -453 -454 -5277 5279 0
856 453 -454 5277 5279 0
856 -444 -447 5275 -5277 0
856 -444 447 5275 5277 0
856 444 -447 -5275 -5277 0
856 444 447 -5275 5277 0
856 -444 447 -5275 -5277 0
856 444 447 5275 -5277 0
856 -444 -447 -5275 5277 0
856 444 -447 5275 5277 0
856 -242 -273 3165 -3167 0
856 -242 273 3165 3167 0
856 242 -273 -3165 -3167 0
856 242 273 -3165 3167 0
856 -242 273 -3165 -3167 0
856 242 273 3165 -3167 0
856 -242 -273 -3165 3167 0
856 242 -273 3165 3167 0
856 8 -20 -23 -2212 0
856 8 -20 23 2212 0
856 -8 20 -23 -2212 0
856 -8 20 23 2212 0
856 -8 -20 23 -2212 0
856 8 20 23 -2212 0
856 -8 -20 -23 2212 0
856 8 20 -23 2212 0
856 -568 -601 5296 -5298 0
856 -568 601 5296 5298 0
856 568 -601 -5296 -5298 0
856 568 601 -5296 5298 0
856 -568 601 -5296 -5298 0
856 568 601 5296 -5298 0
856 -568 -601 -5296 5298 0
856 568 -601 5296 5298 0
856 -544 -547 5287 -5289 0
856 -544 547 5287 5289 0
856 544 -547 -5287 -5289 0
856 544 547 -5287 5289 0
856 -544 547 -5287 -5289 0
856 544 547 5287 -5289 0
856 -544 -547 -5287 5289 0
856 544 -547 5287 5289 0
856 -462 -466 5282 -5284 0
856 -462 466 5282 5284 0
856 462 -466 -5282 -5284 0
856 462 466 -5282 5284 0
856 -462 466 -5282 -5284 0
856 462 466 5282 -5284 0
856 -462 -466 -5282 5284 0
856 462 -466 5282 5284 0
856 -542 -543 5285 -5287 0
856 -542 543 5285 5287 0
856 542 -543 -5285 -5287 0
856 542 543 -5285 5287 0
856 -542 543 -5285 -5287 0
856 542 543 5285 -5287 0
856 -542 -543 -5285 5287 0
856 542 -543 5285 5287 0
856 -554 -556 5290 -5292 0
856 -554 556 5290 5292 0
856 554 -556 -5290 -5292 0
856 554 556 -5290 5292 0
856 -554 556 -5290 -5292 0
856 554 556 5290 -5292 0
856 -554 -556 -5290 5292 0
856 554 -556 5290 5292 0
856 -562 -566 5294 -5296 0
856 -562 566 5294 5296 0
856 562 -566 -5294 -5296 0
856 562 566 -5294 5296 0
856 -562 566 -5294 -5296 0
856 562 566 5294 -5296 0
856 -562 -566 -5294 5296 0
856 562 -566 5294 5296 0
856 -222 -240 3156 -3158 0
856 -222 240 3156 3158 0
856 222 -240 -3156 -3158 0
856 222 240 -3156 3158 0
856 -222 240 -3156 -3158 0
856 222 240 3156 -3158 0
856 -222 -240 -3156 3158 0
856 222 -240 3156 3158 0
856 -352 -355 5305 -5307 0
856 -352 355 5305 5307 0
856 352 -355 -5305 -5307 0
856 352 355 -5305 5307 0
856 -352 355 -5305 -5307 0
856 352 355 5305 -5307 0
856 -352 -355 -5305 5307 0
856 352 -355 5305 5307 0
856 342 -343 -344 -5302 0
856 342 -343 344 5302 0
856 -342 343 -344 -5302 0
856 -342 343 344 5302 0
856 -342 -343 344 -5302 0
856 342 343 344 -5302 0
856 -342 -343 -344 5302 0
856 342 343 -344 5302 0
856 -347 -350 5303 -5305 0
856 -347 350 5303 5305 0
856 347 -350 -5303 -5305 0
856 347 350 -5303 5305 0
856 -347 350 -5303 -5305 0
856 347 350 5303 -5305 0
856 -347 -350 -5303 5305 0
856 347 -350 5303 5305 0
856 -392 -393 5314 -5316 0
856 -392 393 5314 5316 0
856 392 -393 -5314 -5316 0
856 392 393 -5314 5316 0
856 -392 393 -5314 -5316 0
856 392 393 5314 -5316 0
856 -392 -393 -5314 5316 0
856 392 -393 5314 5316 0
856 -356 -358 5307 -5309 0
856 -356 358 5307 5309 0
856 356 -358 -5307 -5309 0
856 356 358 -5307 5309 0
856 -356 358 -5307 -5309 0
856 356 358 5307 -5309 0
856 -356 -358 -5307 5309 0
856 356 -358 5307 5309 0
856 -367 -391 5312 -5314 0
856 -367 391 5312 5314 0
856 367 -391 -5312 -5314 0
856 367 391 -5312 5314 0
856 -367 391 -5312 -5314 0
856 367 391 5312 -5314 0
856 -367 -391 -5312 5314 0
856 367 -391 5312 5314 0
856 -399 -401 5318 -5320 0
856 -399 401 5318 5320 0
856 399 -401 -5318 -5320 0
856 399 401 -5318 5320 0
856 -399 401 -5318 -5320 0
856 399 401 5318 -5320 0
856 -399 -401 -5318 5320 0
856 399 -401 5318 5320 0
856 208 -217 -221 -3150 0
856 208 -217 221 3150 0
856 -208 217 -221 -3150 0
856 -208 217 221 3150 0
856 -208 -217 221 -3150 0
856 208 217 221 -3150 0
856 -208 -217 -221 3150 0
856 208 217 -221 3150 0
856 -456 -504 1574 -1576 0
856 -456 504 1574 1576 0
856 456 -504 -1574 -1576 0
856 456 504 -1574 1576 0
856 -456 504 -1574 -1576 0
856 456 504 1574 -1576 0
856 -456 -504 -1574 1576 0
856 456 -504 1574 1576 0
856 362 -414 -467 -1330 0
856 362 -414 467 1330 0
856 -362 414 -467 -1330 0
856 -362 414 467 1330 0
856 -362 -414 467 -1330 0
856 362 414 467 -1330 0
856 -362 -414 -467 1330 0
856 362 414 -467 1330 0
856 -407 -408 5322 -5324 0
856 -407 408 5322 5324 0
856 407 -408 -5322 -5324 0
856 407 408 -5322 5324 0
856 -407 408 -5322 -5324 0
856 407 408 5322 -5324 0
856 -407 -408 -5322 5324 0
856 407 -408 5322 5324 0
856 -250 -270 3144 -3146 0
856 -250 270 3144 3146 0
856 250 -270 -3144 -3146 0
856 250 270 -3144 3146 0
856 -250 270 -3144 -3146 0
856 250 270 3144 -3146 0
856 -250 -270 -3144 3146 0
856 250 -270 3144 3146 0
856 -451 -456 5331 -5333 0
856 -451 456 5331 5333 0
856 451 -456 -5331 -5333 0
856 451 456 -5331 5333 0
856 -451 456 -5331 -5333 0
856 451 456 5331 -5333 0
856 -451 -456 -5331 5333 0
856 451 -456 5331 5333 0
856 -416 -444 5326 -5328 0
856 -416 444 5326 5328 0
856 416 -444 -5326 -5328 0
856 416 444 -5326 5328 0
856 -416 444 -5326 -5328 0
856 416 444 5326 -5328 0
856 -416 -444 -5326 5328 0
856 416 -444 5326 5328 0
856 -449 -450 5329 -5331 0
856 -449 450 5329 5331 0
856 449 -450 -5329 -5331 0
856 449 450 -5329 5331 0
856 -449 450 -5329 -5331 0
856 449 450 5329 -5331 0
856 -449 -450 -5329 5331 0
856 449 -450 5329 5331 0
856 207 -216 -230 -3143 0
856 207 -216 230 3143 0
856 -207 216 -230 -3143 0
856 -207 216 230 3143 0
856 -207 -216 230 -3143 0
856 207 216 230 -3143 0
856 -207 -216 -230 3143 0
856 207 216 -230 3143 0
856 -465 -467 5335 -5337 0
856 -465 467 5335 5337 0
856 465 -467 -5335 -5337 0
856 465 467 -5335 5337 0
856 -465 467 -5335 -5337 0
856 465 467 5335 -5337 0
856 -465 -467 -5335 5337 0
856 465 -467 5335 5337 0
856 -494 -496 5340 -5342 0
856 -494 496 5340 5342 0
856 494 -496 -5340 -5342 0
856 494 496 -5340 5342 0
856 -494 496 -5340 -5342 0
856 494 496 5340 -5342 0
856 -494 -496 -5340 5342 0
856 494 -496 5340 5342 0
856 -514 -516 5350 -5352 0
856 -514 516 5350 5352 0
856 514 -516 -5350 -5352 0
856 514 516 -5350 5352 0
856 -514 516 -5350 -5352 0
856 514 516 5350 -5352 0
856 -514 -516 -5350 5352 0
856 514 -516 5350 5352 0
856 -505 -507 5344 -5346 0
856 -505 507 5344 5346 0
856 505 -507 -5344 -5346 0
856 505 507 -5344 5346 0
856 -505 507 -5344 -5346 0
856 505 507 5344 -5346 0
856 -505 -507 -5344 5346 0
856 505 -507 5344 5346 0
856 206 -215 -229 -3136 0
856 206 -215 229 3136 0
856 -206 215 -229 -3136 0
856 -206 215 229 3136 0
856 -206 -215 229 -3136 0
856 206 215 229 -3136 0
856 -206 -215 -229 3136 0
856 206 215 -229 3136 0
856 352 -401 -455 -1568 0
856 352 -401 455 1568 0
856 -352 401 -455 -1568 0
856 -352 401 455 1568 0
856 -352 -401 455 -1568 0
856 352 401 455 -1568 0
856 -352 -401 -455 1568 0
856 352 401 -455 1568 0
856 -512 -513 5348 -5350 0
856 -512 513 5348 5350 0
856 512 -513 -5348 -5350 0
856 512 513 -5348 5350 0
856 -512 513 -5348 -5350 0
856 512 513 5348 -5350 0
856 -512 -513 -5348 5350 0
856 512 -513 5348 5350 0
856 -542 -545 5354 -5356 0
856 -542 545 5354 5356 0
856 542 -545 -5354 -5356 0
856 542 545 -5354 5356 0
856 -542 545 -5354 -5356 0
856 542 545 5354 -5356 0
856 -542 -545 -5354 5356 0
856 542 -545 5354 5356 0
856 -228 -236 3128 -3130 0
856 -228 236 3128 3130 0
856 228 -236 -3128 -3130 0
856 228 236 -3128 3130 0
856 -228 236 -3128 -3130 0
856 228 236 3128 -3130 0
856 -228 -236 -3128 3130 0
856 228 -236 3128 3130 0
856 -549 -552 5358 -5360 0
856 -549 552 5358 5360 0
856 549 -552 -5358 -5360 0
856 549 552 -5358 5360 0
856 -549 552 -5358 -5360 0
856 549 552 5358 -5360 0
856 -549 -552 -5358 5360 0
856 549 -552 5358 5360 0
856 -565 -566 5367 -5369 0
856 -565 566 5367 5369 0
856 565 -566 -5367 -5369 0
856 565 566 -5367 5369 0
856 -565 566 -5367 -5369 0
856 565 566 5367 -5369 0
856 -565 -566 -5367 5369 0
856 565 -566 5367 5369 0
856 -554 -627 1562 -1564 0
856 -554 627 1562 1564 0
856 554 -627 -1562 -1564 0
856 554 627 -1562 1564 0
856 -554 627 -1562 -1564 0
856 554 627 1562 -1564 0
856 -554 -627 -1562 1564 0
856 554 -627 1562 1564 0
856 -558 -559 5362 -5364 0
856 -558 559 5362 5364 0
856 558 -559 -5362 -5364 0
856 558 559 -5362 5364 0
856 -558 559 -5362 -5364 0
856 558 559 5362 -5364 0
856 -558 -559 -5362 5364 0
856 558 -559 5362 5364 0
856 204 -213 -227 -3122 0
856 204 -213 227 3122 0
856 -204 213 -227 -3122 0
856 -204 213 227 3122 0
856 -204 -213 227 -3122 0
856 204 213 227 -3122 0
856 -204 -213 -227 3122 0
856 204 213 -227 3122 0
856 351 -410 -454 -1561 0
856 351 -410 454 1561 0
856 -351 410 -454 -1561 0
856 -351 410 454 1561 0
856 -351 -410 454 -1561 0
856 351 410 454 -1561 0
856 -351 -410 -454 1561 0
856 351 410 -454 1561 0
856 -146 -260 2654 -2656 0
856 -146 260 2654 2656 0
856 146 -260 -2654 -2656 0
856 146 260 -2654 2656 0
856 -146 260 -2654 -2656 0
856 146 260 2654 -2656 0
856 -146 -260 -2654 2656 0
856 146 -260 2654 2656 0
856 -144 -258 2640 -2642 0
856 -144 258 2640 2642 0
856 144 -258 -2640 -2642 0
856 144 258 -2640 2642 0
856 -144 258 -2640 -2642 0
856 144 258 2640 -2642 0
856 -144 -258 -2640 2642 0
856 144 -258 2640 2642 0
856 -90 -98 2457 -2459 0
856 -90 98 2457 2459 0
856 90 -98 -2457 -2459 0
856 90 98 -2457 2459 0
856 -90 98 -2457 -2459 0
856 90 98 2457 -2459 0
856 -90 -98 -2457 2459 0
856 90 -98 2457 2459 0
856 -234 -246 3115 -3117 0
856 -234 246 3115 3117 0
856 234 -246 -3115 -3117 0
856 234 246 -3115 3117 0
856 -234 246 -3115 -3117 0
856 234 246 3115 -3117 0
856 -234 -246 -3115 3117 0
856 234 -246 3115 3117 0
856 -143 -257 2633 -2635 0
856 -143 257 2633 2635 0
856 143 -257 -2633 -2635 0
856 143 257 -2633 2635 0
856 -143 257 -2633 -2635 0
856 143 257 2633 -2635 0
856 -143 -257 -2633 2635 0
856 143 -257 2633 2635 0
856 -362 -364 5381 -5383 0
856 -362 364 5381 5383 0
856 362 -364 -5381 -5383 0
856 362 364 -5381 5383 0
856 -362 364 -5381 -5383 0
856 362 364 5381 -5383 0
856 -362 -364 -5381 5383 0
856 362 -364 5381 5383 0
856 -349 -350 5376 -5378 0
856 -349 350 5376 5378 0
856 349 -350 -5376 -5378 0
856 349 350 -5376 5378 0
856 -349 350 -5376 -5378 0
856 349 350 5376 -5378 0
856 -349 -350 -5376 5378 0
856 349 -350 5376 5378 0
856 -366 -367 5383 -5385 0
856 -366 367 5383 5385 0
856 366 -367 -5383 -5385 0
856 366 367 -5383 5385 0
856 -366 367 -5383 -5385 0
856 366 367 5383 -5385 0
856 -366 -367 -5383 5385 0
856 366 -367 5383 5385 0
856 -398 -399 5389 -5391 0
856 -398 399 5389 5391 0
856 398 -399 -5389 -5391 0
856 398 399 -5389 5391 0
856 -398 399 -5389 -5391 0
856 398 399 5389 -5391 0
856 -398 -399 -5389 5391 0
856 398 -399 5389 5391 0
856 -225 -233 3107 -3109 0
856 -225 233 3107 3109 0
856 225 -233 -3107 -3109 0
856 225 233 -3107 3109 0
856 -225 233 -3107 -3109 0
856 225 233 3107 -3109 0
856 -225 -233 -3107 3109 0
856 225 -233 3107 3109 0
856 -501 -553 1554 -1556 0
856 -501 553 1554 1556 0
856 501 -553 -1554 -1556 0
856 501 553 -1554 1556 0
856 -501 553 -1554 -1556 0
856 501 553 1554 -1556 0
856 -501 -553 -1554 1556 0
856 501 -553 1554 1556 0
856 -392 -393 5387 -5389 0
856 -392 393 5387 5389 0
856 392 -393 -5387 -5389 0
856 392 393 -5387 5389 0
856 -392 393 -5387 -5389 0
856 392 393 5387 -5389 0
856 -392 -393 -5387 5389 0
856 392 -393 5387 5389 0
856 -416 -417 5398 -5400 0
856 -416 417 5398 5400 0
856 416 -417 -5398 -5400 0
856 416 417 -5398 5400 0
856 -416 417 -5398 -5400 0
856 416 417 5398 -5400 0
856 -416 -417 -5398 5400 0
856 416 -417 5398 5400 0
856 -403 -408 5393 -5395 0
856 -403 408 5393 5395 0
856 403 -408 -5393 -5395 0
856 403 408 -5393 5395 0
856 -403 408 -5393 -5395 0
856 403 408 5393 -5395 0
856 -403 -408 -5393 5395 0
856 403 -408 5393 5395 0
856 -548 -549 5438 -5440 0
856 -548 549 5438 5440 0
856 548 -549 -5438 -5440 0
856 548 549 -5438 5440 0
856 -548 549 -5438 -5440 0
856 548 549 5438 -5440 0
856 -548 -549 -5438 5440 0
856 548 -549 5438 5440 0
856 -441 -442 5401 -5403 0
856 -441 442 5401 5403 0
856 441 -442 -5401 -5403 0
856 441 442 -5401 5403 0
856 -441 442 -5401 -5403 0
856 441 442 5401 -5403 0
856 -441 -442 -5401 5403 0
856 441 -442 5401 5403 0
856 -224 -232 3100 -3102 0
856 -224 232 3100 3102 0
856 224 -232 -3100 -3102 0
856 224 232 -3100 3102 0
856 -224 232 -3100 -3102 0
856 224 232 3100 -3102 0
856 -224 -232 -3100 3102 0
856 224 -232 3100 3102 0
856 -446 -447 5405 -5407 0
856 -446 447 5405 5407 0
856 446 -447 -5405 -5407 0
856 446 447 -5405 5407 0
856 -446 447 -5405 -5407 0
856 446 447 5405 -5407 0
856 -446 -447 -5405 5407 0
856 446 -447 5405 5407 0
856 -451 -453 5407 -5409 0
856 -451 453 5407 5409 0
856 451 -453 -5407 -5409 0
856 451 453 -5407 5409 0
856 -451 453 -5407 -5409 0
856 451 453 5407 -5409 0
856 -451 -453 -5407 5409 0
856 451 -453 5407 5409 0
856 -457 -458 5411 -5413 0
856 -457 458 5411 5413 0
856 457 -458 -5411 -5413 0
856 457 458 -5411 5413 0
856 -457 458 -5411 -5413 0
856 457 458 5411 -5413 0
856 -457 -458 -5411 5413 0
856 457 -458 5411 5413 0
856 -363 -367 5258 -5260 0
856 -363 367 5258 5260 0
856 363 -367 -5258 -5260 0
856 363 367 -5258 5260 0
856 -363 367 -5258 -5260 0
856 363 367 5258 -5260 0
856 -363 -367 -5258 5260 0
856 363 -367 5258 5260 0
856 -467 -468 5415 -5417 0
856 -467 468 5415 5417 0
856 467 -468 -5415 -5417 0
856 467 468 -5415 5417 0
856 -467 468 -5415 -5417 0
856 467 468 5415 -5417 0
856 -467 -468 -5415 5417 0
856 467 -468 5415 5417 0
856 210 -219 -223 -3094 0
856 210 -219 223 3094 0
856 -210 219 -223 -3094 0
856 -210 219 223 3094 0
856 -210 -219 223 -3094 0
856 210 219 223 -3094 0
856 -210 -219 -223 3094 0
856 210 219 -223 3094 0
856 -442 -500 1546 -1548 0
856 -442 500 1546 1548 0
856 442 -500 -1546 -1548 0
856 442 500 -1546 1548 0
856 -442 500 -1546 -1548 0
856 442 500 1546 -1548 0
856 -442 -500 -1546 1548 0
856 442 -500 1546 1548 0
856 -495 -496 5420 -5422 0
856 -495 496 5420 5422 0
856 495 -496 -5420 -5422 0
856 495 496 -5420 5422 0
856 -495 496 -5420 -5422 0
856 495 496 5420 -5422 0
856 -495 -496 -5420 5422 0
856 495 -496 5420 5422 0
856 -565 -599 1317 -1319 0
856 -565 599 1317 1319 0
856 565 -599 -1317 -1319 0
856 565 599 -1317 1319 0
856 -565 599 -1317 -1319 0
856 565 599 1317 -1319 0
856 -565 -599 -1317 1319 0
856 565 -599 1317 1319 0
856 -502 -505 5424 -5426 0
856 -502 505 5424 5426 0
856 502 -505 -5424 -5426 0
856 502 505 -5424 5426 0
856 -502 505 -5424 -5426 0
856 502 505 5424 -5426 0
856 -502 -505 -5424 5426 0
856 502 -505 5424 5426 0
856 -512 -513 5429 -5431 0
856 -512 513 5429 5431 0
856 512 -513 -5429 -5431 0
856 512 513 -5429 5431 0
856 -512 513 -5429 -5431 0
856 512 513 5429 -5431 0
856 -512 -513 -5429 5431 0
856 512 -513 5429 5431 0
856 -541 -626 1541 -1543 0
856 -541 626 1541 1543 0
856 541 -626 -1541 -1543 0
856 541 626 -1541 1543 0
856 -541 626 -1541 -1543 0
856 541 626 1541 -1543 0
856 -541 -626 -1541 1543 0
856 541 -626 1541 1543 0
856 -517 -518 5433 -5435 0
856 -517 518 5433 5435 0
856 517 -518 -5433 -5435 0
856 517 518 -5433 5435 0
856 -517 518 -5433 -5435 0
856 517 518 5433 -5435 0
856 -517 -518 -5433 5435 0
856 517 -518 5433 5435 0
856 202 -214 -227 -3080 0
856 202 -214 227 3080 0
856 -202 214 -227 -3080 0
856 -202 214 227 3080 0
856 -202 -214 227 -3080 0
856 202 214 227 -3080 0
856 -202 -214 -227 3080 0
856 202 214 -227 3080 0
856 -453 -505 1231 -1233 0
856 -453 505 1231 1233 0
856 453 -505 -1231 -1233 0
856 453 505 -1231 1233 0
856 -453 505 -1231 -1233 0
856 453 505 1231 -1233 0
856 -453 -505 -1231 1233 0
856 453 -505 1231 1233 0
856 -557 -559 5441 -5443 0
856 -557 559 5441 5443 0
856 557 -559 -5441 -5443 0
856 557 559 -5441 5443 0
856 -557 559 -5441 -5443 0
856 557 559 5441 -5443 0
856 -557 -559 -5441 5443 0
856 557 -559 5441 5443 0
856 -563 -564 5445 -5447 0
856 -563 564 5445 5447 0
856 563 -564 -5445 -5447 0
856 563 564 -5445 5447 0
856 -563 564 -5445 -5447 0
856 563 564 5445 -5447 0
856 -563 -564 -5445 5447 0
856 563 -564 5445 5447 0
856 108 -120 -123 -2632 0
856 108 -120 123 2632 0
856 -108 120 -123 -2632 0
856 -108 120 123 2632 0
856 -108 -120 123 -2632 0
856 108 120 123 -2632 0
856 -108 -120 -123 2632 0
856 108 120 -123 2632 0
856 -150 -270 2724 -2726 0
856 -150 270 2724 2726 0
856 150 -270 -2724 -2726 0
856 150 270 -2724 2726 0
856 -150 270 -2724 -2726 0
856 150 270 2724 -2726 0
856 -150 -270 -2724 2726 0
856 150 -270 2724 2726 0
856 -139 -141 2730 -2732 0
856 -139 141 2730 2732 0
856 139 -141 -2730 -2732 0
856 139 141 -2730 2732 0
856 -139 141 -2730 -2732 0
856 139 141 2730 -2732 0
856 -139 -141 -2730 2732 0
856 139 -141 2730 2732 0
856 -472 -524 1364 -1366 0
856 -472 524 1364 1366 0
856 472 -524 -1364 -1366 0
856 472 524 -1364 1366 0
856 -472 524 -1364 -1366 0
856 472 524 1364 -1366 0
856 -472 -524 -1364 1366 0
856 472 -524 1364 1366 0
856 108 -117 -121 -2730 0
856 108 -117 121 2730 0
856 -108 117 -121 -2730 0
856 -108 117 121 2730 0
856 -108 -117 121 -2730 0
856 108 117 121 -2730 0
856 -108 -117 -121 2730 0
856 108 117 -121 2730 0
856 56 -62 -74 -2597 0
856 56 -62 74 2597 0
856 -56 62 -74 -2597 0
856 -56 62 74 2597 0
856 -56 -62 74 -2597 0
856 56 62 74 -2597 0
856 -56 -62 -74 2597 0
856 56 62 -74 2597 0
856 -572 -594 1366 -1368 0
856 -572 594 1366 1368 0
856 572 -594 -1366 -1368 0
856 572 594 -1366 1368 0
856 -572 594 -1366 -1368 0
856 572 594 1366 -1368 0
856 -572 -594 -1366 1368 0
856 572 -594 1366 1368 0
856 210 -212 -225 -3066 0
856 210 -212 225 3066 0
856 -210 212 -225 -3066 0
856 -210 212 225 3066 0
856 -210 -212 225 -3066 0
856 210 212 225 -3066 0
856 -210 -212 -225 3066 0
856 210 212 -225 3066 0
856 347 -396 -450 -1533 0
856 347 -396 450 1533 0
856 -347 396 -450 -1533 0
856 -347 396 450 1533 0
856 -347 -396 450 -1533 0
856 347 396 450 -1533 0
856 -347 -396 -450 1533 0
856 347 396 -450 1533 0
856 -142 -262 2738 -2740 0
856 -142 262 2738 2740 0
856 142 -262 -2738 -2740 0
856 142 262 -2738 2740 0
856 -142 262 -2738 -2740 0
856 142 262 2738 -2740 0
856 -142 -262 -2738 2740 0
856 142 -262 2738 2740 0
856 109 -118 -122 -2737 0
856 109 -118 122 2737 0
856 -109 118 -122 -2737 0
856 -109 118 122 2737 0
856 -109 -118 122 -2737 0
856 109 118 122 -2737 0
856 -109 -118 -122 2737 0
856 109 118 -122 2737 0
856 378 -430 -473 -1372 0
856 378 -430 473 1372 0
856 -378 430 -473 -1372 0
856 -378 430 473 1372 0
856 -378 -430 473 -1372 0
856 378 430 473 -1372 0
856 -378 -430 -473 1372 0
856 378 430 -473 1372 0
856 107 -113 -125 -2744 0
856 107 -113 125 2744 0
856 -107 113 -125 -2744 0
856 -107 113 125 2744 0
856 -107 -113 125 -2744 0
856 107 113 125 -2744 0
856 -107 -113 -125 2744 0
856 107 113 -125 2744 0
856 -41 -260 2199 -2201 0
856 -41 260 2199 2201 0
856 41 -260 -2199 -2201 0
856 41 260 -2199 2201 0
856 -41 260 -2199 -2201 0
856 41 260 2199 -2201 0
856 -41 -260 -2199 2201 0
856 41 -260 2199 2201 0
856 209 -211 -224 -3059 0
856 209 -211 224 3059 0
856 -209 211 -224 -3059 0
856 -209 211 224 3059 0
856 -209 -211 224 -3059 0
856 209 211 224 -3059 0
856 -209 -211 -224 3059 0
856 209 211 -224 3059 0
856 -549 -624 1527 -1529 0
856 -549 624 1527 1529 0
856 549 -624 -1527 -1529 0
856 549 624 -1527 1529 0
856 -549 624 -1527 -1529 0
856 549 624 1527 -1529 0
856 -549 -624 -1527 1529 0
856 549 -624 1527 1529 0
856 -525 -573 1372 -1374 0
856 -525 573 1372 1374 0
856 525 -573 -1372 -1374 0
856 525 573 -1372 1374 0
856 -525 573 -1372 -1374 0
856 525 573 1372 -1374 0
856 -525 -573 -1372 1374 0
856 525 -573 1372 1374 0
856 -243 -257 3053 -3055 0
856 -243 257 3053 3055 0
856 243 -257 -3053 -3055 0
856 243 257 -3053 3055 0
856 -243 257 -3053 -3055 0
856 243 257 3053 -3055 0
856 -243 -257 -3053 3055 0
856 243 -257 3053 3055 0
856 -142 -273 2745 -2747 0
856 -142 273 2745 2747 0
856 142 -273 -2745 -2747 0
856 142 273 -2745 2747 0
856 -142 273 -2745 -2747 0
856 142 273 2745 -2747 0
856 -142 -273 -2745 2747 0
856 142 -273 2745 2747 0
856 -126 -133 2750 -2752 0
856 -126 133 2750 2752 0
856 126 -133 -2750 -2752 0
856 126 133 -2750 2752 0
856 -126 133 -2750 -2752 0
856 126 133 2750 -2752 0
856 -126 -133 -2750 2752 0
856 126 -133 2750 2752 0
856 392 -393 -398 -4926 0
856 392 -393 398 4926 0
856 -392 393 -398 -4926 0
856 -392 393 398 4926 0
856 -392 -393 398 -4926 0
856 392 393 398 -4926 0
856 -392 -393 -398 4926 0
856 392 393 -398 4926 0
856 -142 -256 2626 -2628 0
856 -142 256 2626 2628 0
856 142 -256 -2626 -2628 0
856 142 256 -2626 2628 0
856 -142 256 -2626 -2628 0
856 142 256 2626 -2628 0
856 -142 -256 -2626 2628 0
856 142 -256 2626 2628 0
856 -134 -144 2758 -2760 0
856 -134 144 2758 2760 0
856 134 -144 -2758 -2760 0
856 134 144 -2758 2760 0
856 -134 144 -2758 -2760 0
856 134 144 2758 -2760 0
856 -134 -144 -2758 2760 0
856 134 -144 2758 2760 0
856 -143 -274 2752 -2754 0
856 -143 274 2752 2754 0
856 143 -274 -2752 -2754 0
856 143 274 -2752 2754 0
856 -143 274 -2752 -2754 0
856 143 274 2752 -2754 0
856 -143 -274 -2752 2754 0
856 143 -274 2752 2754 0
856 -222 -234 3044 -3046 0
856 -222 234 3044 3046 0
856 222 -234 -3044 -3046 0
856 222 234 -3044 3046 0
856 -222 234 -3044 -3046 0
856 222 234 3044 -3046 0
856 -222 -234 -3044 3046 0
856 222 -234 3044 3046 0
856 379 -421 -474 -1379 0
856 379 -421 474 1379 0
856 -379 421 -474 -1379 0
856 -379 421 474 1379 0
856 -379 -421 474 -1379 0
856 379 421 474 -1379 0
856 -379 -421 -474 1379 0
856 379 421 -474 1379 0
856 109 -115 -127 -2758 0
856 109 -115 127 2758 0
856 -109 115 -127 -2758 0
856 -109 115 127 2758 0
856 -109 -115 127 -2758 0
856 109 115 127 -2758 0
856 -109 -115 -127 2758 0
856 109 115 -127 2758 0
856 -574 -596 1380 -1382 0
856 -574 596 1380 1382 0
856 574 -596 -1380 -1382 0
856 574 596 -1380 1382 0
856 -574 596 -1380 -1382 0
856 574 596 1380 -1382 0
856 -574 -596 -1380 1382 0
856 574 -596 1380 1382 0
856 110 -116 -128 -2765 0
856 110 -116 128 2765 0
856 -110 116 -128 -2765 0
856 -110 116 128 2765 0
856 -110 -116 128 -2765 0
856 110 116 128 -2765 0
856 -110 -116 -128 2765 0
856 110 116 -128 2765 0
856 -145 -276 2766 -2768 0
856 -145 276 2766 2768 0
856 145 -276 -2766 -2768 0
856 145 276 -2766 2768 0
856 -145 276 -2766 -2768 0
856 145 276 2766 -2768 0
856 -145 -276 -2766 2768 0
856 145 -276 2766 2768 0
856 -221 -233 3037 -3039 0
856 -221 233 3037 3039 0
856 221 -233 -3037 -3039 0
856 221 233 -3037 3039 0
856 -221 233 -3037 -3039 0
856 221 233 3037 -3039 0
856 -221 -233 -3037 3039 0
856 221 -233 3037 3039 0
856 -448 -496 1518 -1520 0
856 -448 496 1518 1520 0
856 448 -496 -1518 -1520 0
856 448 496 -1518 1520 0
856 -448 496 -1518 -1520 0
856 448 496 1518 -1520 0
856 -448 -496 -1518 1520 0
856 448 -496 1518 1520 0
856 101 -117 -129 -2772 0
856 101 -117 129 2772 0
856 -101 117 -129 -2772 0
856 -101 117 129 2772 0
856 -101 -117 129 -2772 0
856 101 117 129 -2772 0
856 -101 -117 -129 2772 0
856 101 117 -129 2772 0
856 380 -422 -475 -1386 0
856 380 -422 475 1386 0
856 -380 422 -475 -1386 0
856 -380 422 475 1386 0
856 -380 -422 475 -1386 0
856 380 422 475 -1386 0
856 -380 -422 -475 1386 0
856 380 422 -475 1386 0
856 -250 -254 3032 -3034 0
856 -250 254 3032 3034 0
856 250 -254 -3032 -3034 0
856 250 254 -3032 3034 0
856 -250 254 -3032 -3034 0
856 250 254 3032 -3034 0
856 -250 -254 -3032 3034 0
856 250 -254 3032 3034 0
856 -136 -146 2772 -2774 0
856 -136 146 2772 2774 0
856 136 -146 -2772 -2774 0
856 136 146 -2772 2774 0
856 -136 146 -2772 -2774 0
856 136 146 2772 -2774 0
856 -136 -146 -2772 2774 0
856 136 -146 2772 2774 0
856 -527 -575 1386 -1388 0
856 -527 575 1386 1388 0
856 527 -575 -1386 -1388 0
856 527 575 -1386 1388 0
856 -527 575 -1386 -1388 0
856 527 575 1386 -1388 0
856 -527 -575 -1386 1388 0
856 527 -575 1386 1388 0
856 205 -217 -230 -3031 0
856 205 -217 230 3031 0
856 -205 217 -230 -3031 0
856 -205 217 230 3031 0
856 -205 -217 230 -3031 0
856 205 217 230 -3031 0
856 -205 -217 -230 3031 0
856 205 217 -230 3031 0
856 -130 -137 2778 -2780 0
856 -130 137 2778 2780 0
856 130 -137 -2778 -2780 0
856 130 137 -2778 2780 0
856 -130 137 -2778 -2780 0
856 130 137 2778 -2780 0
856 -130 -137 -2778 2780 0
856 130 -137 2778 2780 0
856 -231 -249 3024 -3026 0
856 -231 249 3024 3026 0
856 231 -249 -3024 -3026 0
856 231 249 -3024 3026 0
856 -231 249 -3024 -3026 0
856 231 249 3024 -3026 0
856 -231 -249 -3024 3026 0
856 231 -249 3024 3026 0
856 -447 -495 1511 -1513 0
856 -447 495 1511 1513 0
856 447 -495 -1511 -1513 0
856 447 495 -1511 1513 0
856 -447 495 -1511 -1513 0
856 447 495 1511 -1513 0
856 -447 -495 -1511 1513 0
856 447 -495 1511 1513 0
856 -361 -363 4392 -4394 0
856 -361 363 4392 4394 0
856 361 -363 -4392 -4394 0
856 361 363 -4392 4394 0
856 -361 363 -4392 -4394 0
856 361 363 4392 -4394 0
856 -361 -363 -4392 4394 0
856 361 -363 4392 4394 0
856 -147 -278 2780 -2782 0
856 -147 278 2780 2782 0
856 147 -278 -2780 -2782 0
856 147 278 -2780 2782 0
856 -147 278 -2780 -2782 0
856 147 278 2780 -2782 0
856 -147 -278 -2780 2782 0
856 147 -278 2780 2782 0
856 -353 -356 4388 -4390 0
856 -353 356 4388 4390 0
856 353 -356 -4388 -4390 0
856 353 356 -4388 4390 0
856 -353 356 -4388 -4390 0
856 353 356 4388 -4390 0
856 -353 -356 -4388 4390 0
856 353 -356 4388 4390 0
856 -138 -148 2786 -2788 0
856 -138 148 2786 2788 0
856 138 -148 -2786 -2788 0
856 138 148 -2786 2788 0
856 -138 148 -2786 -2788 0
856 138 148 2786 -2788 0
856 -138 -148 -2786 2788 0
856 138 -148 2786 2788 0
856 -476 -528 1392 -1394 0
856 -476 528 1392 1394 0
856 476 -528 -1392 -1394 0
856 476 528 -1392 1394 0
856 -476 528 -1392 -1394 0
856 476 528 1392 -1394 0
856 -476 -528 -1392 1394 0
856 476 -528 1392 1394 0
856 103 -119 -121 -2786 0
856 103 -119 121 2786 0
856 -103 119 -121 -2786 0
856 -103 119 121 2786 0
856 -103 -119 121 -2786 0
856 103 119 121 -2786 0
856 -103 -119 -121 2786 0
856 103 119 -121 2786 0
856 -174 -181 3016 -3018 0
856 -174 181 3016 3018 0
856 174 -181 -3016 -3018 0
856 174 181 -3016 3018 0
856 -174 181 -3016 -3018 0
856 174 181 3016 -3018 0
856 -174 -181 -3016 3018 0
856 174 -181 3016 3018 0
856 107 -119 -122 -2625 0
856 107 -119 122 2625 0
856 -107 119 -122 -2625 0
856 -107 119 122 2625 0
856 -107 -119 122 -2625 0
856 107 119 122 -2625 0
856 -107 -119 -122 2625 0
856 107 119 -122 2625 0
856 -576 -598 1394 -1396 0
856 -576 598 1394 1396 0
856 576 -598 -1394 -1396 0
856 576 598 -1394 1396 0
856 -576 598 -1394 -1396 0
856 576 598 1394 -1396 0
856 -576 -598 -1394 1396 0
856 576 -598 1394 1396 0
856 -200 -279 3011 -3013 0
856 -200 279 3011 3013 0
856 200 -279 -3011 -3013 0
856 200 279 -3011 3013 0
856 -200 279 -3011 -3013 0
856 200 279 3011 -3013 0
856 -200 -279 -3011 3013 0
856 200 -279 3011 3013 0
856 -149 -280 2794 -2796 0
856 -149 280 2794 2796 0
856 149 -280 -2794 -2796 0
856 149 280 -2794 2796 0
856 -149 280 -2794 -2796 0
856 149 280 2794 -2796 0
856 -149 -280 -2794 2796 0
856 149 -280 2794 2796 0
856 104 -120 -122 -2793 0
856 104 -120 122 2793 0
856 -104 120 -122 -2793 0
856 -104 120 122 2793 0
856 -104 -120 122 -2793 0
856 104 120 122 -2793 0
856 -104 -120 -122 2793 0
856 104 120 -122 2793 0
856 372 -424 -477 -1400 0
856 372 -424 477 1400 0
856 -372 424 -477 -1400 0
856 -372 424 477 1400 0
856 -372 -424 477 -1400 0
856 372 424 477 -1400 0
856 -372 -424 -477 1400 0
856 372 424 -477 1400 0
856 105 -111 -123 -2800 0
856 105 -111 123 2800 0
856 -105 111 -123 -2800 0
856 -105 111 123 2800 0
856 -105 -111 123 -2800 0
856 105 111 123 -2800 0
856 -105 -111 -123 2800 0
856 105 111 -123 2800 0
856 -529 -577 1400 -1402 0
856 -529 577 1400 1402 0
856 529 -577 -1400 -1402 0
856 529 577 -1400 1402 0
856 -529 577 -1400 -1402 0
856 529 577 1400 -1402 0
856 -529 -577 -1400 1402 0
856 529 -577 1400 1402 0
856 -452 -453 5218 -5220 0
856 -452 453 5218 5220 0
856 452 -453 -5218 -5220 0
856 452 453 -5218 5220 0
856 -452 453 -5218 -5220 0
856 452 453 5218 -5220 0
856 -452 -453 -5218 5220 0
856 452 -453 5218 5220 0
856 -189 -199 3003 -3005 0
856 -189 199 3003 3005 0
856 189 -199 -3003 -3005 0
856 189 199 -3003 3005 0
856 -189 199 -3003 -3005 0
856 189 199 3003 -3005 0
856 -189 -199 -3003 3005 0
856 189 -199 3003 3005 0
856 154 -170 -172 -3003 0
856 154 -170 172 3003 0
856 -154 170 -172 -3003 0
856 -154 170 172 3003 0
856 -154 -170 172 -3003 0
856 154 170 172 -3003 0
856 -154 -170 -172 3003 0
856 154 170 -172 3003 0
856 -150 -271 2801 -2803 0
856 -150 271 2801 2803 0
856 150 -271 -2801 -2803 0
856 150 271 -2801 2803 0
856 -150 271 -2801 -2803 0
856 150 271 2801 -2803 0
856 -150 -271 -2801 2803 0
856 150 -271 2801 2803 0
856 -124 -131 2806 -2808 0
856 -124 131 2806 2808 0
856 124 -131 -2806 -2808 0
856 124 131 -2806 2808 0
856 -124 131 -2806 -2808 0
856 124 131 2806 -2808 0
856 -124 -131 -2806 2808 0
856 124 -131 2806 2808 0
856 -188 -198 2996 -2998 0
856 -188 198 2996 2998 0
856 188 -198 -2996 -2998 0
856 188 198 -2996 2998 0
856 -188 198 -2996 -2998 0
856 188 198 2996 -2998 0
856 -188 -198 -2996 2998 0
856 188 -198 2996 2998 0
856 -493 -545 1498 -1500 0
856 -493 545 1498 1500 0
856 493 -545 -1498 -1500 0
856 493 545 -1498 1500 0
856 -493 545 -1498 -1500 0
856 493 545 1498 -1500 0
856 -493 -545 -1498 1500 0
856 493 -545 1498 1500 0
856 -149 -253 2605 -2607 0
856 -149 253 2605 2607 0
856 149 -253 -2605 -2607 0
856 149 253 -2605 2607 0
856 -149 253 -2605 -2607 0
856 149 253 2605 -2607 0
856 -149 -253 -2605 2607 0
856 149 -253 2605 2607 0
856 -141 -272 2808 -2810 0
856 -141 272 2808 2810 0
856 141 -272 -2808 -2810 0
856 141 272 -2808 2810 0
856 -141 272 -2808 -2810 0
856 141 272 2808 -2810 0
856 -141 -272 -2808 2810 0
856 141 -272 2808 2810 0
856 -415 -416 4918 -4920 0
856 -415 416 4918 4920 0
856 415 -416 -4918 -4920 0
856 415 416 -4918 4920 0
856 -415 416 -4918 -4920 0
856 415 416 4918 -4920 0
856 -415 -416 -4918 4920 0
856 415 -416 4918 4920 0
856 -187 -197 2989 -2991 0
856 -187 197 2989 2991 0
856 187 -197 -2989 -2991 0
856 187 197 -2989 2991 0
856 -187 197 -2989 -2991 0
856 187 197 2989 -2991 0
856 -187 -197 -2989 2991 0
856 187 -197 2989 2991 0
856 373 -425 -478 -1407 0
856 373 -425 478 1407 0
856 -373 425 -478 -1407 0
856 -373 425 478 1407 0
856 -373 -425 478 -1407 0
856 373 425 478 -1407 0
856 -373 -425 -478 1407 0
856 373 425 -478 1407 0
856 152 -168 -180 -2989 0
856 152 -168 180 2989 0
856 -152 168 -180 -2989 0
856 -152 168 180 2989 0
856 -152 -168 180 -2989 0
856 152 168 180 -2989 0
856 -152 -168 -180 2989 0
856 152 168 -180 2989 0
856 154 -166 -179 -2814 0
856 154 -166 179 2814 0
856 -154 166 -179 -2814 0
856 -154 166 179 2814 0
856 -154 -166 179 -2814 0
856 154 166 179 -2814 0
856 -154 -166 -179 2814 0
856 154 166 -179 2814 0
856 -181 -199 2814 -2816 0
856 -181 199 2814 2816 0
856 181 -199 -2814 -2816 0
856 181 199 -2814 2816 0
856 -181 199 -2814 -2816 0
856 181 199 2814 -2816 0
856 -181 -199 -2814 2816 0
856 181 -199 2814 2816 0
856 -348 -349 4368 -4370 0
856 -348 349 4368 4370 0
856 348 -349 -4368 -4370 0
856 348 349 -4368 4370 0
856 -348 349 -4368 -4370 0
856 348 349 4368 -4370 0
856 -348 -349 -4368 4370 0
856 348 -349 4368 4370 0
856 -366 -367 4376 -4378 0
856 -366 367 4376 4378 0
856 366 -367 -4376 -4378 0
856 366 367 -4376 4378 0
856 -366 367 -4376 -4378 0
856 366 367 4376 -4378 0
856 -366 -367 -4376 4378 0
856 366 -367 4376 4378 0
856 151 -167 -179 -2982 0
856 151 -167 179 2982 0
856 -151 167 -179 -2982 0
856 -151 167 179 2982 0
856 -151 -167 179 -2982 0
856 151 167 179 -2982 0
856 -151 -167 -179 2982 0
856 151 167 -179 2982 0
856 -444 -492 1490 -1492 0
856 -444 492 1490 1492 0
856 444 -492 -1490 -1492 0
856 444 492 -1490 1492 0
856 -444 492 -1490 -1492 0
856 444 492 1490 -1492 0
856 -444 -492 -1490 1492 0
856 444 -492 1490 1492 0
856 -504 -552 1225 -1227 0
856 -504 552 1225 1227 0
856 504 -552 -1225 -1227 0
856 504 552 -1225 1227 0
856 -504 552 -1225 -1227 0
856 504 552 1225 -1227 0
856 -504 -552 -1225 1227 0
856 504 -552 1225 1227 0
856 -578 -600 1408 -1410 0
856 -578 600 1408 1410 0
856 578 -600 -1408 -1410 0
856 578 600 -1408 1410 0
856 -578 600 -1408 -1410 0
856 578 600 1408 -1410 0
856 -578 -600 -1408 1410 0
856 578 -600 1408 1410 0
856 155 -167 -180 -2821 0
856 155 -167 180 2821 0
856 -155 167 -180 -2821 0
856 -155 167 180 2821 0
856 -155 -167 180 -2821 0
856 155 167 180 -2821 0
856 -155 -167 -180 2821 0
856 155 167 -180 2821 0
856 -200 -252 2822 -2824 0
856 -200 252 2822 2824 0
856 200 -252 -2822 -2824 0
856 200 252 -2822 2824 0
856 -200 252 -2822 -2824 0
856 200 252 2822 -2824 0
856 -200 -252 -2822 2824 0
856 200 -252 2822 2824 0
856 160 -166 -178 -2975 0
856 160 -166 178 2975 0
856 -160 166 -178 -2975 0
856 -160 166 178 2975 0
856 -160 -166 178 -2975 0
856 160 166 178 -2975 0
856 -160 -166 -178 2975 0
856 160 166 -178 2975 0
856 384 -436 -489 -1414 0
856 384 -436 489 1414 0
856 -384 436 -489 -1414 0
856 -384 436 489 1414 0
856 -384 -436 489 -1414 0
856 384 436 489 -1414 0
856 -384 -436 -489 1414 0
856 384 436 -489 1414 0
856 -184 -194 2968 -2970 0
856 -184 194 2968 2970 0
856 184 -194 -2968 -2970 0
856 184 194 -2968 2970 0
856 -184 194 -2968 -2970 0
856 184 194 2968 -2970 0
856 -184 -194 -2968 2970 0
856 184 -194 2968 2970 0
856 -443 -491 1483 -1485 0
856 -443 491 1483 1485 0
856 443 -491 -1483 -1485 0
856 443 491 -1483 1485 0
856 -443 491 -1483 -1485 0
856 443 491 1483 -1485 0
856 -443 -491 -1483 1485 0
856 443 -491 1483 1485 0
856 -191 -253 2829 -2831 0
856 -191 253 2829 2831 0
856 191 -253 -2829 -2831 0
856 191 253 -2829 2831 0
856 -191 253 -2829 -2831 0
856 191 253 2829 -2831 0
856 -191 -253 -2829 2831 0
856 191 -253 2829 2831 0
856 156 -168 -171 -2828 0
856 156 -168 171 2828 0
856 -156 168 -171 -2828 0
856 -156 168 171 2828 0
856 -156 -168 171 -2828 0
856 156 168 171 -2828 0
856 -156 -168 -171 2828 0
856 156 168 -171 2828 0
856 -531 -589 1414 -1416 0
856 -531 589 1414 1416 0
856 531 -589 -1414 -1416 0
856 531 589 -1414 1416 0
856 -531 589 -1414 -1416 0
856 531 589 1414 -1416 0
856 -531 -589 -1414 1416 0
856 531 -589 1414 1416 0
856 -176 -183 2960 -2962 0
856 -176 183 2960 2962 0
856 176 -183 -2960 -2962 0
856 176 183 -2960 2962 0
856 -176 183 -2960 -2962 0
856 176 183 2960 -2962 0
856 -176 -183 -2960 2962 0
856 176 -183 2960 2962 0
856 -172 -184 2834 -2836 0
856 -172 184 2834 2836 0
856 172 -184 -2834 -2836 0
856 172 184 -2834 2836 0
856 -172 184 -2834 -2836 0
856 172 184 2834 -2836 0
856 -172 -184 -2834 2836 0
856 172 -184 2834 2836 0
856 -192 -254 2836 -2838 0
856 -192 254 2836 2838 0
856 192 -254 -2836 -2838 0
856 192 254 -2836 2838 0
856 -192 254 -2836 -2838 0
856 192 254 2836 -2838 0
856 -192 -254 -2836 2838 0
856 192 -254 2836 2838 0
856 -192 -271 2955 -2957 0
856 -192 271 2955 2957 0
856 192 -271 -2955 -2957 0
856 192 271 -2955 2957 0
856 -192 271 -2955 -2957 0
856 192 271 2955 -2957 0
856 -192 -271 -2955 2957 0
856 192 -271 2955 2957 0
856 -564 -598 1310 -1312 0
856 -564 598 1310 1312 0
856 564 -598 -1310 -1312 0
856 564 598 -1310 1312 0
856 -564 598 -1310 -1312 0
856 564 598 1310 -1312 0
856 -564 -598 -1310 1312 0
856 564 -598 1310 1312 0
856 -185 -193 2842 -2844 0
856 -185 193 2842 2844 0
856 185 -193 -2842 -2844 0
856 185 193 -2842 2844 0
856 -185 193 -2842 -2844 0
856 185 193 2842 -2844 0
856 -185 -193 -2842 2844 0
856 185 -193 2842 2844 0
856 -490 -532 1420 -1422 0
856 -490 532 1420 1422 0
856 490 -532 -1420 -1422 0
856 490 532 -1420 1422 0
856 -490 532 -1420 -1422 0
856 490 532 1420 -1422 0
856 -490 -532 -1420 1422 0
856 490 -532 1420 1422 0
856 157 -163 -175 -2954 0
856 157 -163 175 2954 0
856 -157 163 -175 -2954 0
856 -157 163 175 2954 0
856 -157 -163 175 -2954 0
856 157 163 175 -2954 0
856 -157 -163 -175 2954 0
856 157 163 -175 2954 0
856 383 -435 -488 -1477 0
856 383 -435 488 1477 0
856 -383 435 -488 -1477 0
856 -383 435 488 1477 0
856 -383 -435 488 -1477 0
856 383 435 488 -1477 0
856 -383 -435 -488 1477 0
856 383 435 -488 1477 0
856 158 -170 -173 -2842 0
856 158 -170 173 2842 0
856 -158 170 -173 -2842 0
856 -158 170 173 2842 0
856 -158 -170 173 -2842 0
856 158 170 173 -2842 0
856 -158 -170 -173 2842 0
856 158 170 -173 2842 0
856 -190 -192 2947 -2949 0
856 -190 192 2947 2949 0
856 190 -192 -2947 -2949 0
856 190 192 -2947 2949 0
856 -190 192 -2947 -2949 0
856 190 192 2947 -2949 0
856 -190 -192 -2947 2949 0
856 190 -192 2947 2949 0
856 -399 -402 4909 -4911 0
856 -399 402 4909 4911 0
856 399 -402 -4909 -4911 0
856 399 402 -4909 4911 0
856 -399 402 -4909 -4911 0
856 399 402 4909 -4911 0
856 -399 -402 -4909 4911 0
856 399 -402 4909 4911 0
856 -590 -594 1422 -1424 0
856 -590 594 1422 1424 0
856 590 -594 -1422 -1424 0
856 590 594 -1422 1424 0
856 -590 594 -1422 -1424 0
856 590 594 1422 -1424 0
856 -590 -594 -1422 1424 0
856 590 -594 1422 1424 0
856 -566 -600 1324 -1326 0
856 -566 600 1324 1326 0
856 566 -600 -1324 -1326 0
856 566 600 -1324 1326 0
856 -566 600 -1324 -1326 0
856 566 600 1324 -1326 0
856 -566 -600 -1324 1326 0
856 566 -600 1324 1326 0
856 -194 -256 2850 -2852 0
856 -194 256 2850 2852 0
856 194 -256 -2850 -2852 0
856 194 256 -2850 2852 0
856 -194 256 -2850 -2852 0
856 194 256 2850 -2852 0
856 -194 -256 -2850 2852 0
856 194 -256 2850 2852 0
856 159 -161 -174 -2849 0
856 159 -161 174 2849 0
856 -159 161 -174 -2849 0
856 -159 161 174 2849 0
856 -159 -161 174 -2849 0
856 159 161 174 -2849 0
856 -159 -161 -174 2849 0
856 159 161 -174 2849 0
856 -97 -254 2451 -2453 0
856 -97 254 2451 2453 0
856 97 -254 -2451 -2453 0
856 97 254 -2451 2453 0
856 -97 254 -2451 -2453 0
856 97 254 2451 -2453 0
856 -97 -254 -2451 2453 0
856 97 -254 2451 2453 0
856 -191 -269 2941 -2943 0
856 -191 269 2941 2943 0
856 191 -269 -2941 -2943 0
856 191 269 -2941 2943 0
856 -191 269 -2941 -2943 0
856 191 269 2941 -2943 0
856 -191 -269 -2941 2943 0
856 191 -269 2941 2943 0
856 160 -162 -175 -2856 0
856 160 -162 175 2856 0
856 -160 162 -175 -2856 0
856 -160 162 175 2856 0
856 -160 -162 175 -2856 0
856 160 162 175 -2856 0
856 -160 -162 -175 2856 0
856 160 162 -175 2856 0
856 -171 -189 2939 -2941 0
856 -171 189 2939 2941 0
856 171 -189 -2939 -2941 0
856 171 189 -2939 2941 0
856 -171 189 -2939 -2941 0
856 171 189 2939 -2941 0
856 -171 -189 -2939 2941 0
856 171 -189 2939 2941 0
856 386 -438 -481 -1428 0
856 386 -438 481 1428 0
856 -386 438 -481 -1428 0
856 -386 438 481 1428 0
856 -386 -438 481 -1428 0
856 386 438 481 -1428 0
856 -386 -438 -481 1428 0
856 386 438 -481 1428 0
856 -533 -581 1428 -1430 0
856 -533 581 1428 1430 0
856 533 -581 -1428 -1430 0
856 533 581 -1428 1430 0
856 -533 581 -1428 -1430 0
856 533 581 1428 -1430 0
856 -533 -581 -1428 1430 0
856 533 -581 1428 1430 0
856 -195 -257 2857 -2859 0
856 -195 257 2857 2859 0
856 195 -257 -2857 -2859 0
856 195 257 -2857 2859 0
856 -195 257 -2857 -2859 0
856 195 257 2857 -2859 0
856 -195 -257 -2857 2859 0
856 195 -257 2857 2859 0
856 -176 -188 2862 -2864 0
856 -176 188 2862 2864 0
856 176 -188 -2862 -2864 0
856 176 188 -2862 2864 0
856 -176 188 -2862 -2864 0
856 176 188 2862 -2864 0
856 -176 -188 -2862 2864 0
856 176 -188 2862 2864 0
856 -180 -188 2932 -2934 0
856 -180 188 2932 2934 0
856 180 -188 -2932 -2934 0
856 180 188 -2932 2934 0
856 -180 188 -2932 -2934 0
856 180 188 2932 -2934 0
856 -180 -188 -2932 2934 0
856 180 -188 2932 2934 0
856 357 -409 -452 -1225 0
856 357 -409 452 1225 0
856 -357 409 -452 -1225 0
856 -357 409 452 1225 0
856 -357 -409 452 -1225 0
856 357 409 452 -1225 0
856 -357 -409 -452 1225 0
856 357 409 -452 1225 0
856 106 -118 -121 -2618 0
856 106 -118 121 2618 0
856 -106 118 -121 -2618 0
856 -106 118 121 2618 0
856 -106 -118 121 -2618 0
856 106 118 121 -2618 0
856 -106 -118 -121 2618 0
856 106 118 -121 2618 0
856 -411 -412 4900 -4902 0
856 -411 412 4900 4902 0
856 411 -412 -4900 -4902 0
856 411 412 -4900 4902 0
856 -411 412 -4900 -4902 0
856 411 412 4900 -4902 0
856 -411 -412 -4900 4902 0
856 411 -412 4900 4902 0
856 -196 -258 2864 -2866 0
856 -196 258 2864 2866 0
856 196 -258 -2864 -2866 0
856 196 258 -2864 2866 0
856 -196 258 -2864 -2866 0
856 196 258 2864 -2866 0
856 -196 -258 -2864 2866 0
856 196 -258 2864 2866 0
856 387 -439 -482 -1435 0
856 387 -439 482 1435 0
856 -387 439 -482 -1435 0
856 -387 439 482 1435 0
856 -387 -439 482 -1435 0
856 387 439 482 -1435 0
856 -387 -439 -482 1435 0
856 387 439 -482 1435 0
856 -179 -187 2925 -2927 0
856 -179 187 2925 2927 0
856 179 -187 -2925 -2927 0
856 179 187 -2925 2927 0
856 -179 187 -2925 -2927 0
856 179 187 2925 -2927 0
856 -179 -187 -2925 2927 0
856 179 -187 2925 2927 0
856 -486 -538 1462 -1464 0
856 -486 538 1462 1464 0
856 486 -538 -1462 -1464 0
856 486 538 -1462 1464 0
856 -486 538 -1462 -1464 0
856 486 538 1462 -1464 0
856 -486 -538 -1462 1464 0
856 486 -538 1462 1464 0
856 -189 -197 2870 -2872 0
856 -189 197 2870 2872 0
856 189 -197 -2870 -2872 0
856 189 197 -2870 2872 0
856 -189 197 -2870 -2872 0
856 189 197 2870 -2872 0
856 -189 -197 -2870 2872 0
856 189 -197 2870 2872 0
856 152 -164 -177 -2870 0
856 152 -164 177 2870 0
856 -152 164 -177 -2870 0
856 -152 164 177 2870 0
856 -152 -164 177 -2870 0
856 152 164 177 -2870 0
856 -152 -164 -177 2870 0
856 152 164 -177 2870 0
856 -198 -266 2920 -2922 0
856 -198 266 2920 2922 0
856 198 -266 -2920 -2922 0
856 198 266 -2920 2922 0
856 -198 266 -2920 -2922 0
856 198 266 2920 -2922 0
856 -198 -266 -2920 2922 0
856 198 -266 2920 2922 0
856 -77 -89 2449 -2451 0
856 -77 89 2449 2451 0
856 77 -89 -2449 -2451 0
856 77 89 -2449 2451 0
856 -77 89 -2449 -2451 0
856 77 89 2449 -2451 0
856 -77 -89 -2449 2451 0
856 77 -89 2449 2451 0
856 -582 -596 1436 -1438 0
856 -582 596 1436 1438 0
856 582 -596 -1436 -1438 0
856 582 596 -1436 1438 0
856 -582 596 -1436 -1438 0
856 582 596 1436 -1438 0
856 -582 -596 -1436 1438 0
856 582 -596 1436 1438 0
856 155 -164 -178 -2919 0
856 155 -164 178 2919 0
856 -155 164 -178 -2919 0
856 -155 164 178 2919 0
856 -155 -164 178 -2919 0
856 155 164 178 -2919 0
856 -155 -164 -178 2919 0
856 155 164 -178 2919 0
856 -362 -363 4372 -4374 0
856 -362 363 4372 4374 0
856 362 -363 -4372 -4374 0
856 362 363 -4372 4374 0
856 -362 363 -4372 -4374 0
856 362 363 4372 -4374 0
856 -362 -363 -4372 4374 0
856 362 -363 4372 4374 0
856 -177 -185 2911 -2913 0
856 -177 185 2911 2913 0
856 177 -185 -2911 -2913 0
856 177 185 -2911 2913 0
856 -177 185 -2911 -2913 0
856 177 185 2911 -2913 0
856 -177 -185 -2911 2913 0
856 177 -185 2911 2913 0
856 -485 -537 1455 -1457 0
856 -485 537 1455 1457 0
856 485 -537 -1455 -1457 0
856 485 537 -1455 1457 0
856 -485 537 -1455 -1457 0
856 485 537 1455 -1457 0
856 -485 -537 -1455 1457 0
856 485 -537 1455 1457 0
856 -178 -190 2876 -2878 0
856 -178 190 2876 2878 0
856 178 -190 -2876 -2878 0
856 178 190 -2876 2878 0
856 -178 190 -2876 -2878 0
856 178 190 2876 -2878 0
856 -178 -190 -2876 2878 0
856 178 -190 2876 2878 0
856 -198 -260 2878 -2880 0
856 -198 260 2878 2880 0
856 198 -260 -2878 -2880 0
856 198 260 -2878 2880 0
856 -198 260 -2878 -2880 0
856 198 260 2878 -2880 0
856 -198 -260 -2878 2880 0
856 198 -260 2878 2880 0
856 -581 -652 2178 -2180 0
856 -581 652 2178 2180 0
856 581 -652 -2178 -2180 0
856 581 652 -2178 2180 0
856 -581 652 -2178 -2180 0
856 581 652 2178 -2180 0
856 -581 -652 -2178 2180 0
856 581 -652 2178 2180 0
856 4 -16 -29 -2184 0
856 4 -16 29 2184 0
856 -4 16 -29 -2184 0
856 -4 16 29 2184 0
856 -4 -16 29 -2184 0
856 4 16 29 -2184 0
856 -4 -16 -29 2184 0
856 4 16 -29 2184 0
856 -150 -254 2612 -2614 0
856 -150 254 2612 2614 0
856 150 -254 -2612 -2614 0
856 150 254 -2612 2614 0
856 -150 254 -2612 -2614 0
856 150 254 2612 -2614 0
856 -150 -254 -2612 2614 0
856 150 -254 2612 2614 0
856 388 -440 -483 -1442 0
856 388 -440 483 1442 0
856 -388 440 -483 -1442 0
856 -388 440 483 1442 0
856 -388 -440 483 -1442 0
856 388 440 483 -1442 0
856 -388 -440 -483 1442 0
856 388 440 -483 1442 0
856 -176 -184 2904 -2906 0
856 -176 184 2904 2906 0
856 176 -184 -2904 -2906 0
856 176 184 -2904 2906 0
856 -176 184 -2904 -2906 0
856 176 184 2904 -2906 0
856 -176 -184 -2904 2906 0
856 176 -184 2904 2906 0
856 -193 -261 2885 -2887 0
856 -193 261 2885 2887 0
856 193 -261 -2885 -2887 0
856 193 261 -2885 2887 0
856 -193 261 -2885 -2887 0
856 193 261 2885 -2887 0
856 -193 -261 -2885 2887 0
856 193 -261 2885 2887 0
856 160 -169 -173 -2884 0
856 160 -169 173 2884 0
856 -160 169 -173 -2884 0
856 -160 169 173 2884 0
856 -160 -169 173 -2884 0
856 160 169 173 -2884 0
856 -160 -169 -173 2884 0
856 160 169 -173 2884 0
856 -535 -583 1442 -1444 0
856 -535 583 1442 1444 0
856 535 -583 -1442 -1444 0
856 535 583 -1442 1444 0
856 -535 583 -1442 -1444 0
856 535 583 1442 -1444 0
856 -535 -583 -1442 1444 0
856 535 -583 1442 1444 0
856 -174 -182 2890 -2892 0
856 -174 182 2890 2892 0
856 174 -182 -2890 -2892 0
856 174 182 -2890 2892 0
856 -174 182 -2890 -2892 0
856 174 182 2890 -2892 0
856 -174 -182 -2890 2892 0
856 174 -182 2890 2892 0
856 -194 -262 2892 -2894 0
856 -194 262 2892 2894 0
856 194 -262 -2892 -2894 0
856 194 262 -2892 2894 0
856 -194 262 -2892 -2894 0
856 194 262 2892 -2894 0
856 -194 -262 -2892 2894 0
856 194 -262 2892 2894 0
856 -183 -195 2898 -2900 0
856 -183 195 2898 2900 0
856 183 -195 -2898 -2900 0
856 183 195 -2898 2900 0
856 -183 195 -2898 -2900 0
856 183 195 2898 -2900 0
856 -183 -195 -2898 2900 0
856 183 -195 2898 2900 0
856 -484 -536 1448 -1450 0
856 -484 536 1448 1450 0
856 484 -536 -1448 -1450 0
856 484 536 -1448 1450 0
856 -484 536 -1448 -1450 0
856 484 536 1448 -1450 0
856 -484 -536 -1448 1450 0
856 484 -536 1448 1450 0
856 152 -161 -175 -2898 0
856 152 -161 175 2898 0
856 -152 161 -175 -2898 0
856 -152 161 175 2898 0
856 -152 -161 175 -2898 0
856 152 161 175 -2898 0
856 -152 -161 -175 2898 0
856 152 161 -175 2898 0
856 -584 -598 1450 -1452 0
856 -584 598 1450 1452 0
856 584 -598 -1450 -1452 0
856 584 598 -1450 1452 0
856 -584 598 -1450 -1452 0
856 584 598 1450 -1452 0
856 -584 -598 -1450 1452 0
856 584 -598 1450 1452 0
856 -196 -264 2906 -2908 0
856 -196 264 2906 2908 0
856 196 -264 -2906 -2908 0
856 196 264 -2906 2908 0
856 -196 264 -2906 -2908 0
856 196 264 2906 -2908 0
856 -196 -264 -2906 2908 0
856 196 -264 2906 2908 0
856 -556 -557 5239 -5241 0
856 -556 557 5239 5241 0
856 556 -557 -5239 -5241 0
856 556 557 -5239 5241 0
856 -556 557 -5239 -5241 0
856 556 557 5239 -5241 0
856 -556 -557 -5239 5241 0
856 556 -557 5239 5241 0
856 -355 -356 4355 -4357 0
856 -355 356 4355 4357 0
856 355 -356 -4355 -4357 0
856 355 356 -4355 4357 0
856 -355 356 -4355 -4357 0
856 355 356 4355 -4357 0
856 -355 -356 -4355 4357 0
856 355 -356 4355 4357 0
856 -197 -265 2913 -2915 0
856 -197 265 2913 2915 0
856 197 -265 -2913 -2915 0
856 197 265 -2913 2915 0
856 -197 265 -2913 -2915 0
856 197 265 2913 -2915 0
856 -197 -265 -2913 2915 0
856 197 -265 2913 2915 0
856 -585 -599 1457 -1459 0
856 -585 599 1457 1459 0
856 585 -599 -1457 -1459 0
856 585 599 -1457 1459 0
856 -585 599 -1457 -1459 0
856 585 599 1457 -1459 0
856 -585 -599 -1457 1459 0
856 585 -599 1457 1459 0
856 -199 -267 2927 -2929 0
856 -199 267 2927 2929 0
856 199 -267 -2927 -2929 0
856 199 267 -2927 2929 0
856 -199 267 -2927 -2929 0
856 199 267 2927 -2929 0
856 -199 -267 -2927 2929 0
856 199 -267 2927 2929 0
856 -586 -600 1464 -1466 0
856 -586 600 1464 1466 0
856 586 -600 -1464 -1466 0
856 586 600 -1464 1466 0
856 -586 600 -1464 -1466 0
856 586 600 1464 -1466 0
856 -586 -600 -1464 1466 0
856 586 -600 1464 1466 0
856 -551 -598 1219 -1221 0
856 -551 598 1219 1221 0
856 551 -598 -1219 -1221 0
856 551 598 -1219 1221 0
856 -551 598 -1219 -1221 0
856 551 598 1219 -1221 0
856 -551 -598 -1219 1221 0
856 551 -598 1219 1221 0
856 -200 -268 2934 -2936 0
856 -200 268 2934 2936 0
856 200 -268 -2934 -2936 0
856 200 268 -2934 2936 0
856 -200 268 -2934 -2936 0
856 200 268 2934 -2936 0
856 -200 -268 -2934 2936 0
856 200 -268 2934 2936 0
856 51 -63 -76 -2443 0
856 51 -63 76 2443 0
856 -51 63 -76 -2443 0
856 -51 63 76 2443 0
856 -51 -63 76 -2443 0
856 51 63 76 -2443 0
856 -51 -63 -76 2443 0
856 51 63 -76 2443 0
856 382 -434 -487 -1470 0
856 382 -434 487 1470 0
856 -382 434 -487 -1470 0
856 -382 434 487 1470 0
856 -382 -434 487 -1470 0
856 382 434 487 -1470 0
856 -382 -434 -487 1470 0
856 382 434 -487 1470 0
856 -412 -413 4882 -4884 0
856 -412 413 4882 4884 0
856 412 -413 -4882 -4884 0
856 412 413 -4882 4884 0
856 -412 413 -4882 -4884 0
856 412 413 4882 -4884 0
856 -412 -413 -4882 4884 0
856 412 -413 4882 4884 0
856 -539 -587 1470 -1472 0
856 -539 587 1470 1472 0
856 539 -587 -1470 -1472 0
856 539 587 -1470 1472 0
856 -539 587 -1470 -1472 0
856 539 587 1470 -1472 0
856 -539 -587 -1470 1472 0
856 539 -587 1470 1472 0
856 -589 -660 2164 -2166 0
856 -589 660 2164 2166 0
856 589 -660 -2164 -2166 0
856 589 660 -2164 2166 0
856 -589 660 -2164 -2166 0
856 589 660 2164 -2166 0
856 -589 -660 -2164 2166 0
856 589 -660 2164 2166 0
856 356 -408 -451 -1218 0
856 356 -408 451 1218 0
856 -356 408 -451 -1218 0
856 -356 408 451 1218 0
856 -356 -408 451 -1218 0
856 356 408 451 -1218 0
856 -356 -408 -451 1218 0
856 356 408 -451 1218 0
856 -81 -91 2597 -2599 0
856 -81 91 2597 2599 0
856 81 -91 -2597 -2599 0
856 81 91 -2597 2599 0
856 -81 91 -2597 -2599 0
856 81 91 2597 -2599 0
856 -81 -91 -2597 2599 0
856 81 -91 2597 2599 0
856 159 -168 -172 -2947 0
856 159 -168 172 2947 0
856 -159 168 -172 -2947 0
856 -159 168 172 2947 0
856 -159 -168 172 -2947 0
856 159 168 172 -2947 0
856 -159 -168 -172 2947 0
856 159 168 -172 2947 0
856 -93 -260 2423 -2425 0
856 -93 260 2423 2425 0
856 93 -260 -2423 -2425 0
856 93 260 -2423 2425 0
856 -93 260 -2423 -2425 0
856 93 260 2423 -2425 0
856 -93 -260 -2423 2425 0
856 93 -260 2423 2425 0
856 -540 -588 1477 -1479 0
856 -540 588 1477 1479 0
856 540 -588 -1477 -1479 0
856 540 588 -1477 1479 0
856 -540 588 -1477 -1479 0
856 540 588 1477 -1479 0
856 -540 -588 -1477 1479 0
856 540 -588 1477 1479 0
856 -351 -352 4351 -4353 0
856 -351 352 4351 4353 0
856 351 -352 -4351 -4353 0
856 351 352 -4351 4353 0
856 -351 352 -4351 -4353 0
856 351 352 4351 -4353 0
856 -351 -352 -4351 4353 0
856 351 -352 4351 4353 0
856 391 -392 -393 -4876 0
856 391 -392 393 4876 0
856 -391 392 -393 -4876 0
856 -391 392 393 4876 0
856 -391 -392 393 -4876 0
856 391 392 393 -4876 0
856 -391 -392 -393 4876 0
856 391 392 -393 4876 0
856 -193 -272 2962 -2964 0
856 -193 272 2962 2964 0
856 193 -272 -2962 -2964 0
856 193 272 -2962 2964 0
856 -193 272 -2962 -2964 0
856 193 272 2962 -2964 0
856 -193 -272 -2962 2964 0
856 193 -272 2962 2964 0
856 159 -165 -177 -2968 0
856 159 -165 177 2968 0
856 -159 165 -177 -2968 0
856 -159 165 177 2968 0
856 -159 -165 177 -2968 0
856 159 165 177 -2968 0
856 -159 -165 -177 2968 0
856 159 165 -177 2968 0
856 -563 -597 1303 -1305 0
856 -563 597 1303 1305 0
856 563 -597 -1303 -1305 0
856 563 597 -1303 1305 0
856 -563 597 -1303 -1305 0
856 563 597 1303 -1305 0
856 -563 -597 -1303 1305 0
856 563 -597 1303 1305 0
856 -95 -252 2437 -2439 0
856 -95 252 2437 2439 0
856 95 -252 -2437 -2439 0
856 95 252 -2437 2439 0
856 -95 252 -2437 -2439 0
856 95 252 2437 -2439 0
856 -95 -252 -2437 2439 0
856 95 -252 2437 2439 0
856 -543 -628 1485 -1487 0
856 -543 628 1485 1487 0
856 543 -628 -1485 -1487 0
856 543 628 -1485 1487 0
856 -543 628 -1485 -1487 0
856 543 628 1485 -1487 0
856 -543 -628 -1485 1487 0
856 543 -628 1485 1487 0
856 -185 -195 2975 -2977 0
856 -185 195 2975 2977 0
856 185 -195 -2975 -2977 0
856 185 195 -2975 2977 0
856 -185 195 -2975 -2977 0
856 185 195 2975 -2977 0
856 -185 -195 -2975 2977 0
856 185 -195 2975 2977 0
856 -186 -196 2982 -2984 0
856 -186 196 2982 2984 0
856 186 -196 -2982 -2984 0
856 186 196 -2982 2984 0
856 -186 196 -2982 -2984 0
856 186 196 2982 -2984 0
856 -186 -196 -2982 2984 0
856 186 -196 2982 2984 0
856 -544 -629 1492 -1494 0
856 -544 629 1492 1494 0
856 544 -629 -1492 -1494 0
856 544 629 -1492 1494 0
856 -544 629 -1492 -1494 0
856 544 629 1492 -1494 0
856 -544 -629 -1492 1494 0
856 544 -629 1492 1494 0
856 -349 -350 4349 -4351 0
856 -349 350 4349 4351 0
856 349 -350 -4349 -4351 0
856 349 350 -4349 4351 0
856 -349 350 -4349 -4351 0
856 349 350 4349 -4351 0
856 -349 -350 -4349 4351 0
856 349 -350 4349 4351 0
856 -403 -405 4865 -4867 0
856 -403 405 4865 4867 0
856 403 -405 -4865 -4867 0
856 403 405 -4865 4867 0
856 -403 405 -4865 -4867 0
856 403 405 4865 -4867 0
856 -403 -405 -4865 4867 0
856 403 -405 4865 4867 0
856 153 -169 -171 -2996 0
856 153 -169 171 2996 0
856 -153 169 -171 -2996 0
856 -153 169 171 2996 0
856 -153 -169 171 -2996 0
856 153 169 171 -2996 0
856 -153 -169 -171 2996 0
856 153 169 -171 2996 0
856 342 -391 -445 -1498 0
856 342 -391 445 1498 0
856 -342 391 -445 -1498 0
856 -342 391 445 1498 0
856 -342 -391 445 -1498 0
856 342 391 445 -1498 0
856 -342 -391 -445 1498 0
856 342 391 -445 1498 0
856 -463 -515 1301 -1303 0
856 -463 515 1301 1303 0
856 463 -515 -1301 -1303 0
856 463 515 -1301 1303 0
856 -463 515 -1301 -1303 0
856 463 515 1301 -1303 0
856 -463 -515 -1301 1303 0
856 463 -515 1301 1303 0
856 -590 -651 2171 -2173 0
856 -590 651 2171 2173 0
856 590 -651 -2171 -2173 0
856 590 651 -2171 2173 0
856 -590 651 -2171 -2173 0
856 590 651 2171 -2173 0
856 -590 -651 -2171 2173 0
856 590 -651 2171 2173 0
856 -344 -345 4344 -4346 0
856 -344 345 4344 4346 0
856 344 -345 -4344 -4346 0
856 344 345 -4344 4346 0
856 -344 345 -4344 -4346 0
856 344 345 4344 -4346 0
856 -344 -345 -4344 4346 0
856 344 -345 4344 4346 0
856 -446 -494 1504 -1506 0
856 -446 494 1504 1506 0
856 446 -494 -1504 -1506 0
856 446 494 -1504 1506 0
856 -446 494 -1504 -1506 0
856 446 494 1504 -1506 0
856 -446 -494 -1504 1506 0
856 446 -494 1504 1506 0
856 -173 -190 3009 -3011 0
856 -173 190 3009 3011 0
856 173 -190 -3009 -3011 0
856 173 190 -3009 3011 0
856 -173 190 -3009 -3011 0
856 173 190 3009 -3011 0
856 -173 -190 -3009 3011 0
856 173 -190 3009 3011 0
856 -546 -621 1506 -1508 0
856 -546 621 1506 1508 0
856 546 -621 -1506 -1508 0
856 546 621 -1506 1508 0
856 -546 621 -1506 -1508 0
856 546 621 1506 -1508 0
856 -546 -621 -1506 1508 0
856 546 -621 1506 1508 0
856 -560 -597 1212 -1214 0
856 -560 597 1212 1214 0
856 560 -597 -1212 -1214 0
856 560 597 -1212 1214 0
856 -560 597 -1212 -1214 0
856 560 597 1212 -1214 0
856 -560 -597 -1212 1214 0
856 560 -597 1212 1214 0
856 -191 -280 3018 -3020 0
856 -191 280 3018 3020 0
856 191 -280 -3018 -3020 0
856 191 280 -3018 3020 0
856 -191 280 -3018 -3020 0
856 191 280 3018 -3020 0
856 -191 -280 -3018 3020 0
856 191 -280 3018 3020 0
856 204 -216 -229 -3024 0
856 204 -216 229 3024 0
856 -204 216 -229 -3024 0
856 -204 216 229 3024 0
856 -204 -216 229 -3024 0
856 204 216 229 -3024 0
856 -204 -216 -229 3024 0
856 204 216 -229 3024 0
856 -144 -147 4336 -4338 0
856 -144 147 4336 4338 0
856 144 -147 -4336 -4338 0
856 144 147 -4336 4338 0
856 -144 147 -4336 -4338 0
856 144 147 4336 -4338 0
856 -144 -147 -4336 4338 0
856 144 -147 4336 4338 0
856 -547 -622 1513 -1515 0
856 -547 622 1513 1515 0
856 547 -622 -1513 -1515 0
856 547 622 -1513 1515 0
856 -547 622 -1513 -1515 0
856 547 622 1513 -1515 0
856 -547 -622 -1513 1515 0
856 547 -622 1513 1515 0
856 -132 -133 4327 -4329 0
856 -132 133 4327 4329 0
856 132 -133 -4327 -4329 0
856 132 133 -4327 4329 0
856 -132 133 -4327 -4329 0
856 132 133 4327 -4329 0
856 -132 -133 -4327 4329 0
856 132 -133 4327 4329 0
856 -548 -623 1520 -1522 0
856 -548 623 1520 1522 0
856 548 -623 -1520 -1522 0
856 548 623 -1520 1522 0
856 -548 623 -1520 -1522 0
856 548 623 1520 -1522 0
856 -548 -623 -1520 1522 0
856 548 -623 1520 1522 0
856 -241 -255 3039 -3041 0
856 -241 255 3039 3041 0
856 241 -255 -3039 -3041 0
856 241 255 -3039 3041 0
856 -241 255 -3039 -3041 0
856 241 255 3039 -3041 0
856 -241 -255 -3039 3041 0
856 241 -255 3039 3041 0
856 -242 -256 3046 -3048 0
856 -242 256 3046 3048 0
856 242 -256 -3046 -3048 0
856 242 256 -3046 3048 0
856 -242 256 -3046 -3048 0
856 242 256 3046 -3048 0
856 -242 -256 -3046 3048 0
856 242 -256 3046 3048 0
856 208 -220 -223 -3052 0
856 208 -220 223 3052 0
856 -208 220 -223 -3052 0
856 -208 220 223 3052 0
856 -208 -220 223 -3052 0
856 208 220 223 -3052 0
856 -208 -220 -223 3052 0
856 208 220 -223 3052 0
856 346 -395 -449 -1526 0
856 346 -395 449 1526 0
856 -346 395 -449 -1526 0
856 -346 395 449 1526 0
856 -346 -395 449 -1526 0
856 346 395 449 -1526 0
856 -346 -395 -449 1526 0
856 346 395 -449 1526 0
856 -144 -264 2682 -2684 0
856 -144 264 2682 2684 0
856 144 -264 -2682 -2684 0
856 144 264 -2682 2684 0
856 -144 264 -2682 -2684 0
856 144 264 2682 -2684 0
856 -144 -264 -2682 2684 0
856 144 -264 2682 2684 0
856 -403 -405 5204 -5206 0
856 -403 405 5204 5206 0
856 403 -405 -5204 -5206 0
856 403 405 -5204 5206 0
856 -403 405 -5204 -5206 0
856 403 405 5204 -5206 0
856 -403 -405 -5204 5206 0
856 403 -405 5204 5206 0
856 -236 -244 3059 -3061 0
856 -236 244 3059 3061 0
856 236 -244 -3059 -3061 0
856 236 244 -3059 3061 0
856 -236 244 -3059 -3061 0
856 236 244 3059 -3061 0
856 -236 -244 -3059 3061 0
856 236 -244 3059 3061 0
856 -237 -245 3066 -3068 0
856 -237 245 3066 3068 0
856 237 -245 -3066 -3068 0
856 237 245 -3066 3068 0
856 -237 245 -3066 -3068 0
856 237 245 3066 -3068 0
856 -237 -245 -3066 3068 0
856 237 -245 3066 3068 0
856 -498 -550 1533 -1535 0
856 -498 550 1533 1535 0
856 498 -550 -1533 -1535 0
856 498 550 -1533 1535 0
856 -498 550 -1533 -1535 0
856 498 550 1533 -1535 0
856 -498 -550 -1533 1535 0
856 498 -550 1533 1535 0
856 -71 -83 2407 -2409 0
856 -71 83 2407 2409 0
856 71 -83 -2407 -2409 0
856 71 83 -2407 2409 0
856 -71 83 -2407 -2409 0
856 71 83 2407 -2409 0
856 -71 -83 -2407 2409 0
856 71 -83 2407 2409 0
856 -100 -274 2591 -2593 0
856 -100 274 2591 2593 0
856 100 -274 -2591 -2593 0
856 100 274 -2591 2593 0
856 -100 274 -2591 -2593 0
856 100 274 2591 -2593 0
856 -100 -274 -2591 2593 0
856 100 -274 2591 2593 0
856 -238 -246 3073 -3075 0
856 -238 246 3073 3075 0
856 238 -246 -3073 -3075 0
856 238 246 -3073 3075 0
856 -238 246 -3073 -3075 0
856 238 246 3073 -3075 0
856 -238 -246 -3073 3075 0
856 238 -246 3073 3075 0
856 201 -213 -226 -3073 0
856 201 -213 226 3073 0
856 -201 213 -226 -3073 0
856 -201 213 226 3073 0
856 -201 -213 226 -3073 0
856 201 213 226 -3073 0
856 -201 -213 -226 3073 0
856 201 213 -226 3073 0
856 -462 -514 1294 -1296 0
856 -462 514 1294 1296 0
856 462 -514 -1294 -1296 0
856 462 514 -1294 1296 0
856 -462 514 -1294 -1296 0
856 462 514 1294 -1296 0
856 -462 -514 -1294 1296 0
856 462 -514 1294 1296 0
856 348 -397 -441 -1540 0
856 348 -397 441 1540 0
856 -348 397 -441 -1540 0
856 -348 397 441 1540 0
856 -348 -397 441 -1540 0
856 348 397 441 -1540 0
856 -348 -397 -441 1540 0
856 348 397 -441 1540 0
856 -228 -240 3086 -3088 0
856 -228 240 3086 3088 0
856 228 -240 -3086 -3088 0
856 228 240 -3086 3088 0
856 -228 240 -3086 -3088 0
856 228 240 3086 -3088 0
856 -228 -240 -3086 3088 0
856 228 -240 3086 3088 0
856 -239 -247 3080 -3082 0
856 -239 247 3080 3082 0
856 239 -247 -3080 -3082 0
856 239 247 -3080 3082 0
856 -239 247 -3080 -3082 0
856 239 247 3080 -3082 0
856 -239 -247 -3080 3082 0
856 239 -247 3080 3082 0
856 -562 -596 1296 -1298 0
856 -562 596 1296 1298 0
856 562 -596 -1296 -1298 0
856 562 596 -1296 1298 0
856 -562 596 -1296 -1298 0
856 562 596 1296 -1298 0
856 -562 -596 -1296 1298 0
856 562 -596 1296 1298 0
856 -231 -243 3094 -3096 0
856 -231 243 3094 3096 0
856 231 -243 -3094 -3096 0
856 231 243 -3094 3096 0
856 -231 243 -3094 -3096 0
856 231 243 3094 -3096 0
856 -231 -243 -3094 3096 0
856 231 -243 3094 3096 0
856 -248 -252 3088 -3090 0
856 -248 252 3088 3090 0
856 248 -252 -3088 -3090 0
856 248 252 -3088 3090 0
856 -248 252 -3088 -3090 0
856 248 252 3088 -3090 0
856 -248 -252 -3088 3090 0
856 248 -252 3088 3090 0
856 342 -343 -348 -4590 0
856 342 -343 348 4590 0
856 -342 343 -348 -4590 0
856 -342 343 348 4590 0
856 -342 -343 348 -4590 0
856 342 343 348 -4590 0
856 -342 -343 -348 4590 0
856 342 343 -348 4590 0
856 -542 -627 1548 -1550 0
856 -542 627 1548 1550 0
856 542 -627 -1548 -1550 0
856 542 627 -1548 1550 0
856 -542 627 -1548 -1550 0
856 542 627 1548 -1550 0
856 -542 -627 -1548 1550 0
856 542 -627 1548 1550 0
856 -416 -417 4728 -4730 0
856 -416 417 4728 4730 0
856 416 -417 -4728 -4730 0
856 416 417 -4728 4730 0
856 -416 417 -4728 -4730 0
856 416 417 4728 -4730 0
856 -416 -417 -4728 4730 0
856 416 -417 4728 4730 0
856 -244 -264 3102 -3104 0
856 -244 264 3102 3104 0
856 244 -264 -3102 -3104 0
856 244 264 -3102 3104 0
856 -244 264 -3102 -3104 0
856 244 264 3102 -3104 0
856 -244 -264 -3102 3104 0
856 244 -264 3102 3104 0
856 -73 -90 2589 -2591 0
856 -73 90 2589 2591 0
856 73 -90 -2589 -2591 0
856 73 90 -2589 2591 0
856 -73 90 -2589 -2591 0
856 73 90 2589 -2591 0
856 -73 -90 -2589 2591 0
856 73 -90 2589 2591 0
856 360 -409 -453 -1554 0
856 360 -409 453 1554 0
856 -360 409 -453 -1554 0
856 -360 409 453 1554 0
856 -360 -409 453 -1554 0
856 360 409 453 -1554 0
856 -360 -409 -453 1554 0
856 360 409 -453 1554 0
856 -245 -265 3109 -3111 0
856 -245 265 3109 3111 0
856 245 -265 -3109 -3111 0
856 245 265 -3109 3111 0
856 -245 265 -3109 -3111 0
856 245 265 3109 -3111 0
856 -245 -265 -3109 3111 0
856 245 -265 3109 3111 0
856 203 -212 -226 -3115 0
856 203 -212 226 3115 0
856 -203 212 -226 -3115 0
856 -203 212 226 3115 0
856 -203 -212 226 -3115 0
856 203 212 226 -3115 0
856 -203 -212 -226 3115 0
856 203 212 -226 3115 0
856 -116 -117 4320 -4322 0
856 -116 117 4320 4322 0
856 116 -117 -4320 -4322 0
856 116 117 -4320 4322 0
856 -116 117 -4320 -4322 0
856 116 117 4320 -4322 0
856 -116 -117 -4320 4322 0
856 116 -117 4320 4322 0
856 -235 -247 3122 -3124 0
856 -235 247 3122 3124 0
856 235 -247 -3122 -3124 0
856 235 247 -3122 3124 0
856 -235 247 -3122 -3124 0
856 235 247 3122 -3124 0
856 -235 -247 -3122 3124 0
856 235 -247 3122 3124 0
856 -248 -268 3130 -3132 0
856 -248 268 3130 3132 0
856 248 -268 -3130 -3132 0
856 248 268 -3130 3132 0
856 -248 268 -3130 -3132 0
856 248 268 3130 -3132 0
856 -248 -268 -3130 3132 0
856 248 -268 3130 3132 0
856 341 -343 -346 -5188 0
856 341 -343 346 5188 0
856 -341 343 -346 -5188 0
856 -341 343 346 5188 0
856 -341 -343 346 -5188 0
856 341 343 346 -5188 0
856 -341 -343 -346 5188 0
856 341 343 -346 5188 0
856 -106 -107 4313 -4315 0
856 -106 107 4313 4315 0
856 106 -107 -4313 -4315 0
856 106 107 -4313 4315 0
856 -106 107 -4313 -4315 0
856 106 107 4313 -4315 0
856 -106 -107 -4313 4315 0
856 106 -107 4313 4315 0
856 -249 -269 3137 -3139 0
856 -249 269 3137 3139 0
856 249 -269 -3137 -3139 0
856 249 269 -3137 3139 0
856 -249 269 -3137 -3139 0
856 249 269 3137 -3139 0
856 -249 -269 -3137 3139 0
856 249 -269 3137 3139 0
856 -503 -555 1568 -1570 0
856 -503 555 1568 1570 0
856 503 -555 -1568 -1570 0
856 503 555 -1568 1570 0
856 -503 555 -1568 -1570 0
856 503 555 1568 -1570 0
856 -503 -555 -1568 1570 0
856 503 -555 1568 1570 0
856 -501 -559 1204 -1206 0
856 -501 559 1204 1206 0
856 501 -559 -1204 -1206 0
856 501 559 -1204 1206 0
856 -501 559 -1204 -1206 0
856 501 559 1204 -1206 0
856 -501 -559 -1204 1206 0
856 501 -559 1204 1206 0
856 -517 -519 5166 -5168 0
856 -517 519 5166 5168 0
856 517 -519 -5166 -5168 0
856 517 519 -5166 5168 0
856 -517 519 -5166 -5168 0
856 517 519 5166 -5168 0
856 -517 -519 -5166 5168 0
856 517 -519 5166 5168 0
856 -239 -241 3150 -3152 0
856 -239 241 3150 3152 0
856 239 -241 -3150 -3152 0
856 239 241 -3150 3152 0
856 -239 241 -3150 -3152 0
856 239 241 3150 -3152 0
856 -239 -241 -3150 3152 0
856 239 -241 3150 3152 0
856 -556 -629 1576 -1578 0
856 -556 629 1576 1578 0
856 556 -629 -1576 -1578 0
856 556 629 -1576 1578 0
856 -556 629 -1576 -1578 0
856 556 629 1576 -1578 0
856 -556 -629 -1576 1578 0
856 556 -629 1576 1578 0
856 -242 -262 3158 -3160 0
856 -242 262 3158 3160 0
856 242 -262 -3158 -3160 0
856 242 262 -3158 3160 0
856 -242 262 -3158 -3160 0
856 242 262 3158 -3160 0
856 -242 -262 -3158 3160 0
856 242 -262 3158 3160 0
856 207 -213 -225 -3164 0
856 207 -213 225 3164 0
856 -207 213 -225 -3164 0
856 -207 213 225 3164 0
856 -207 -213 225 -3164 0
856 207 213 225 -3164 0
856 -207 -213 -225 3164 0
856 207 213 -225 3164 0
856 354 -403 -457 -1582 0
856 354 -403 457 1582 0
856 -354 403 -457 -1582 0
856 -354 403 457 1582 0
856 -354 -403 457 -1582 0
856 354 403 457 -1582 0
856 -354 -403 -457 1582 0
856 354 403 -457 1582 0
856 -505 -557 1582 -1584 0
856 -505 557 1582 1584 0
856 505 -557 -1582 -1584 0
856 505 557 -1582 1584 0
856 -505 557 -1582 -1584 0
856 505 557 1582 -1584 0
856 -505 -557 -1582 1584 0
856 505 -557 1582 1584 0
856 383 -439 -481 -2156 0
856 383 -439 481 2156 0
856 -383 439 -481 -2156 0
856 -383 439 481 2156 0
856 -383 -439 481 -2156 0
856 383 439 481 -2156 0
856 -383 -439 -481 2156 0
856 383 439 -481 2156 0
856 208 -214 -226 -3171 0
856 208 -214 226 3171 0
856 -208 214 -226 -3171 0
856 -208 214 226 3171 0
856 -208 -214 226 -3171 0
856 208 214 226 -3171 0
856 -208 -214 -226 3171 0
856 208 214 -226 3171 0
856 -234 -244 3178 -3180 0
856 -234 244 3178 3180 0
856 234 -244 -3178 -3180 0
856 234 244 -3178 3180 0
856 -234 244 -3178 -3180 0
856 234 244 3178 -3180 0
856 -234 -244 -3178 3180 0
856 234 -244 3178 3180 0
856 -506 -558 1589 -1591 0
856 -506 558 1589 1591 0
856 506 -558 -1589 -1591 0
856 506 558 -1589 1591 0
856 -506 558 -1589 -1591 0
856 506 558 1589 -1591 0
856 -506 -558 -1589 1591 0
856 506 -558 1589 1591 0
856 -245 -276 3186 -3188 0
856 -245 276 3186 3188 0
856 245 -276 -3186 -3188 0
856 245 276 -3186 3188 0
856 -245 276 -3186 -3188 0
856 245 276 3186 -3188 0
856 -245 -276 -3186 3188 0
856 245 -276 3186 3188 0
856 201 -217 -229 -3192 0
856 201 -217 229 3192 0
856 -201 217 -229 -3192 0
856 -201 217 229 3192 0
856 -201 -217 229 -3192 0
856 201 217 229 -3192 0
856 -201 -217 -229 3192 0
856 201 217 -229 3192 0
856 -91 -258 2409 -2411 0
856 -91 258 2409 2411 0
856 91 -258 -2409 -2411 0
856 91 258 -2409 2411 0
856 -91 258 -2409 -2411 0
856 91 258 2409 -2411 0
856 -91 -258 -2409 2411 0
856 91 -258 2409 2411 0
856 -238 -248 3206 -3208 0
856 -238 248 3206 3208 0
856 238 -248 -3206 -3208 0
856 238 248 -3206 3208 0
856 -238 248 -3206 -3208 0
856 238 248 3206 -3208 0
856 -238 -248 -3206 3208 0
856 238 -248 3206 3208 0
856 -237 -247 3199 -3201 0
856 -237 247 3199 3201 0
856 237 -247 -3199 -3201 0
856 237 247 -3199 3201 0
856 -237 247 -3199 -3201 0
856 237 247 3199 -3201 0
856 -237 -247 -3199 3201 0
856 237 -247 3199 3201 0
856 54 -66 -79 -2394 0
856 54 -66 79 2394 0
856 -54 66 -79 -2394 0
856 -54 66 79 2394 0
856 -54 -66 79 -2394 0
856 54 66 79 -2394 0
856 -54 -66 -79 2394 0
856 54 66 -79 2394 0
856 -560 -623 1604 -1606 0
856 -560 623 1604 1606 0
856 560 -623 -1604 -1606 0
856 560 623 -1604 1606 0
856 -560 623 -1604 -1606 0
856 560 623 1604 -1606 0
856 -560 -623 -1604 1606 0
856 560 -623 1604 1606 0
856 -249 -280 3214 -3216 0
856 -249 280 3214 3216 0
856 249 -280 -3214 -3216 0
856 249 280 -3214 3216 0
856 -249 280 -3214 -3216 0
856 249 280 3214 -3216 0
856 -249 -280 -3214 3216 0
856 249 -280 3214 3216 0
856 205 -211 -223 -3220 0
856 205 -211 223 3220 0
856 -205 211 -223 -3220 0
856 -205 211 223 3220 0
856 -205 -211 223 -3220 0
856 205 211 223 -3220 0
856 -205 -211 -223 3220 0
856 205 211 -223 3220 0
856 358 -407 -451 -1610 0
856 358 -407 451 1610 0
856 -358 407 -451 -1610 0
856 -358 407 451 1610 0
856 -358 -407 451 -1610 0
856 358 407 451 -1610 0
856 -358 -407 -451 1610 0
856 358 407 -451 1610 0
856 -561 -595 1289 -1291 0
856 -561 595 1289 1291 0
856 561 -595 -1289 -1291 0
856 561 595 -1289 1291 0
856 -561 595 -1289 -1291 0
856 561 595 1289 -1291 0
856 -561 -595 -1289 1291 0
856 561 -595 1289 1291 0
856 382 -438 -490 -2149 0
856 382 -438 490 2149 0
856 -382 438 -490 -2149 0
856 -382 438 490 2149 0
856 -382 -438 490 -2149 0
856 382 438 490 -2149 0
856 -382 -438 -490 2149 0
856 382 438 -490 2149 0
856 -71 -73 4297 -4299 0
856 -71 73 4297 4299 0
856 71 -73 -4297 -4299 0
856 71 73 -4297 4299 0
856 -71 73 -4297 -4299 0
856 71 73 4297 -4299 0
856 -71 -73 -4297 4299 0
856 71 -73 4297 4299 0
856 -8 -9 3238 -3240 0
856 -8 9 3238 3240 0
856 8 -9 -3238 -3240 0
856 8 9 -3238 3240 0
856 -8 9 -3238 -3240 0
856 8 9 3238 -3240 0
856 -8 -9 -3238 3240 0
856 8 -9 3238 3240 0
856 -452 -510 1616 -1618 0
856 -452 510 1616 1618 0
856 452 -510 -1616 -1618 0
856 452 510 -1616 1618 0
856 -452 510 -1616 -1618 0
856 452 510 1616 -1618 0
856 -452 -510 -1616 1618 0
856 452 -510 1616 1618 0
856 354 -406 -459 -1204 0
856 354 -406 459 1204 0
856 -354 406 -459 -1204 0
856 -354 406 459 1204 0
856 -354 -406 459 -1204 0
856 354 406 459 -1204 0
856 -354 -406 -459 1204 0
856 354 406 -459 1204 0
856 -52 -53 3242 -3244 0
856 -52 53 3242 3244 0
856 52 -53 -3242 -3244 0
856 52 53 -3242 3244 0
856 -52 53 -3242 -3244 0
856 52 53 3242 -3244 0
856 -52 -53 -3242 3244 0
856 52 -53 3242 3244 0
856 -100 -257 2402 -2404 0
856 -100 257 2402 2404 0
856 100 -257 -2402 -2404 0
856 100 257 -2402 2404 0
856 -100 257 -2402 -2404 0
856 100 257 2402 -2404 0
856 -100 -257 -2402 2404 0
856 100 -257 2402 2404 0
856 53 -69 -71 -2576 0
856 53 -69 71 2576 0
856 -53 69 -71 -2576 0
856 -53 69 71 2576 0
856 -53 -69 71 -2576 0
856 53 69 71 -2576 0
856 -53 -69 -71 2576 0
856 53 69 -71 2576 0
856 -511 -563 1624 -1626 0
856 -511 563 1624 1626 0
856 511 -563 -1624 -1626 0
856 511 563 -1624 1626 0
856 -511 563 -1624 -1626 0
856 511 563 1624 -1626 0
856 -511 -563 -1624 1626 0
856 511 -563 1624 1626 0
856 -14 -15 3254 -3256 0
856 -14 15 3254 3256 0
856 14 -15 -3254 -3256 0
856 14 15 -3254 3256 0
856 -14 15 -3254 -3256 0
856 14 15 3254 -3256 0
856 -14 -15 -3254 3256 0
856 14 -15 3254 3256 0
856 -80 -82 2400 -2402 0
856 -80 82 2400 2402 0
856 80 -82 -2400 -2402 0
856 80 82 -2400 2402 0
856 -80 82 -2400 -2402 0
856 80 82 2400 -2402 0
856 -80 -82 -2400 2402 0
856 80 -82 2400 2402 0
856 361 -420 -464 -1631 0
856 361 -420 464 1631 0
856 -361 420 -464 -1631 0
856 -361 420 464 1631 0
856 -361 -420 464 -1631 0
856 361 420 464 -1631 0
856 -361 -420 -464 1631 0
856 361 420 -464 1631 0
856 -448 -500 1196 -1198 0
856 -448 500 1196 1198 0
856 448 -500 -1196 -1198 0
856 448 500 -1196 1198 0
856 -448 500 -1196 -1198 0
856 448 500 1196 -1198 0
856 -448 -500 -1196 1198 0
856 448 -500 1196 1198 0
856 -65 -66 3265 -3267 0
856 -65 66 3265 3267 0
856 65 -66 -3265 -3267 0
856 65 66 -3265 3267 0
856 -65 66 -3265 -3267 0
856 65 66 3265 -3267 0
856 -65 -66 -3265 3267 0
856 65 -66 3265 3267 0
856 -564 -624 1632 -1634 0
856 -564 624 1632 1634 0
856 564 -624 -1632 -1634 0
856 564 624 -1632 1634 0
856 -564 624 -1632 -1634 0
856 564 624 1632 -1634 0
856 -564 -624 -1632 1634 0
856 564 -624 1632 1634 0
856 -461 -513 1287 -1289 0
856 -461 513 1287 1289 0
856 461 -513 -1287 -1289 0
856 461 513 -1287 1289 0
856 -461 513 -1287 -1289 0
856 461 513 1287 -1289 0
856 -461 -513 -1287 1289 0
856 461 -513 1287 1289 0
856 -28 -29 3278 -3280 0
856 -28 29 3278 3280 0
856 28 -29 -3278 -3280 0
856 28 29 -3278 3280 0
856 -28 29 -3278 -3280 0
856 28 29 3278 -3280 0
856 -28 -29 -3278 3280 0
856 28 -29 3278 3280 0
856 -586 -657 2143 -2145 0
856 -586 657 2143 2145 0
856 586 -657 -2143 -2145 0
856 586 657 -2143 2145 0
856 -586 657 -2143 -2145 0
856 586 657 2143 -2145 0
856 -586 -657 -2143 2145 0
856 586 -657 2143 2145 0
856 -72 -73 3282 -3284 0
856 -72 73 3282 3284 0
856 72 -73 -3282 -3284 0
856 72 73 -3282 3284 0
856 -72 73 -3282 -3284 0
856 72 73 3282 -3284 0
856 -72 -73 -3282 3284 0
856 72 -73 3282 3284 0
856 -76 -77 3286 -3288 0
856 -76 77 3286 3288 0
856 76 -77 -3286 -3288 0
856 76 77 -3286 3288 0
856 -76 77 -3286 -3288 0
856 76 77 3286 -3288 0
856 -76 -77 -3286 3288 0
856 76 -77 3286 3288 0
856 -46 -48 4288 -4290 0
856 -46 48 4288 4290 0
856 46 -48 -4288 -4290 0
856 46 48 -4288 4290 0
856 -46 48 -4288 -4290 0
856 46 48 4288 -4290 0
856 -46 -48 -4288 4290 0
856 46 -48 4288 4290 0
856 -466 -514 1644 -1646 0
856 -466 514 1644 1646 0
856 466 -514 -1644 -1646 0
856 466 514 -1644 1646 0
856 -466 514 -1644 -1646 0
856 466 514 1644 -1646 0
856 -466 -514 -1644 1646 0
856 466 -514 1644 1646 0
856 -99 -256 2395 -2397 0
856 -99 256 2395 2397 0
856 99 -256 -2395 -2397 0
856 99 256 -2395 2397 0
856 -99 256 -2395 -2397 0
856 99 256 2395 -2397 0
856 -99 -256 -2395 2397 0
856 99 -256 2395 2397 0
856 -82 -83 3302 -3304 0
856 -82 83 3302 3304 0
856 82 -83 -3302 -3304 0
856 82 83 -3302 3304 0
856 -82 83 -3302 -3304 0
856 82 83 3302 -3304 0
856 -82 -83 -3302 3304 0
856 82 -83 3302 3304 0
856 364 -413 -467 -1652 0
856 364 -413 467 1652 0
856 -364 413 -467 -1652 0
856 -364 413 467 1652 0
856 -364 -413 467 -1652 0
856 364 413 467 -1652 0
856 -364 -413 -467 1652 0
856 364 413 -467 1652 0
856 -548 -597 1198 -1200 0
856 -548 597 1198 1200 0
856 548 -597 -1198 -1200 0
856 548 597 -1198 1200 0
856 -548 597 -1198 -1200 0
856 548 597 1198 -1200 0
856 -548 -597 -1198 1200 0
856 548 -597 1198 1200 0
856 -4 -5 3314 -3316 0
856 -4 5 3314 3316 0
856 4 -5 -3314 -3316 0
856 4 5 -3314 3316 0
856 -4 5 -3314 -3316 0
856 4 5 3314 -3316 0
856 -4 -5 -3314 3316 0
856 4 -5 3314 3316 0
856 -512 -514 5148 -5150 0
856 -512 514 5148 5150 0
856 512 -514 -5148 -5150 0
856 512 514 -5148 5150 0
856 -512 514 -5148 -5150 0
856 512 514 5148 -5150 0
856 -512 -514 -5148 5150 0
856 512 -514 5148 5150 0
856 -8 -9 3318 -3320 0
856 -8 9 3318 3320 0
856 8 -9 -3318 -3320 0
856 8 9 -3318 3320 0
856 -8 9 -3318 -3320 0
856 8 9 3318 -3320 0
856 -8 -9 -3318 3320 0
856 8 -9 3318 3320 0
856 365 -414 -468 -1659 0
856 365 -414 468 1659 0
856 -365 414 -468 -1659 0
856 -365 414 468 1659 0
856 -365 -414 468 -1659 0
856 365 414 468 -1659 0
856 -365 -414 -468 1659 0
856 365 414 -468 1659 0
856 -512 -570 1281 -1283 0
856 -512 570 1281 1283 0
856 512 -570 -1281 -1283 0
856 512 570 -1281 1283 0
856 -512 570 -1281 -1283 0
856 512 570 1281 -1283 0
856 -512 -570 -1281 1283 0
856 512 -570 1281 1283 0
856 366 -415 -469 -1666 0
856 366 -415 469 1666 0
856 -366 415 -469 -1666 0
856 -366 415 469 1666 0
856 -366 -415 469 -1666 0
856 366 415 469 -1666 0
856 -366 -415 -469 1666 0
856 366 415 -469 1666 0
856 -108 -109 3328 -3330 0
856 -108 109 3328 3330 0
856 108 -109 -3328 -3330 0
856 108 109 -3328 3330 0
856 -108 109 -3328 -3330 0
856 108 109 3328 -3330 0
856 -108 -109 -3328 3330 0
856 108 -109 3328 3330 0
856 -112 -113 3342 -3344 0
856 -112 113 3342 3344 0
856 112 -113 -3342 -3344 0
856 112 113 -3342 3344 0
856 -112 113 -3342 -3344 0
856 112 113 3342 -3344 0
856 -112 -113 -3342 3344 0
856 112 -113 3342 3344 0
856 -17 -18 3337 -3339 0
856 -17 18 3337 3339 0
856 17 -18 -3337 -3339 0
856 17 18 -3337 3339 0
856 -17 18 -3337 -3339 0
856 17 18 3337 -3339 0
856 -17 -18 -3337 3339 0
856 17 -18 3337 3339 0
856 -87 -97 2569 -2571 0
856 -87 97 2569 2571 0
856 87 -97 -2569 -2571 0
856 87 97 -2569 2571 0
856 -87 97 -2569 -2571 0
856 87 97 2569 -2571 0
856 -87 -97 -2569 2571 0
856 87 -97 2569 2571 0
856 -116 -117 3346 -3348 0
856 -116 117 3346 3348 0
856 116 -117 -3346 -3348 0
856 116 117 -3346 3348 0
856 -116 117 -3346 -3348 0
856 116 117 3346 -3348 0
856 -116 -117 -3346 3348 0
856 116 -117 3346 3348 0
856 -518 -570 1673 -1675 0
856 -518 570 1673 1675 0
856 518 -570 -1673 -1675 0
856 518 570 -1673 1675 0
856 -518 570 -1673 -1675 0
856 518 570 1673 -1675 0
856 -518 -570 -1673 1675 0
856 518 -570 1673 1675 0
856 342 -394 -447 -1190 0
856 342 -394 447 1190 0
856 -342 394 -447 -1190 0
856 -342 394 447 1190 0
856 -342 -394 447 -1190 0
856 342 394 447 -1190 0
856 -342 -394 -447 1190 0
856 342 394 -447 1190 0
856 -41 -277 2388 -2390 0
856 -41 277 2388 2390 0
856 41 -277 -2388 -2390 0
856 41 277 -2388 2390 0
856 -41 277 -2388 -2390 0
856 41 277 2388 -2390 0
856 -41 -277 -2388 2390 0
856 41 -277 2388 2390 0
856 -412 -413 4804 -4806 0
856 -412 413 4804 4806 0
856 412 -413 -4804 -4806 0
856 412 413 -4804 4806 0
856 -412 413 -4804 -4806 0
856 412 413 4804 -4806 0
856 -412 -413 -4804 4806 0
856 412 -413 4804 4806 0
856 368 -417 -461 -1680 0
856 368 -417 461 1680 0
856 -368 417 -461 -1680 0
856 -368 417 461 1680 0
856 -368 -417 461 -1680 0
856 368 417 461 -1680 0
856 -368 -417 -461 1680 0
856 368 417 -461 1680 0
856 -126 -127 3366 -3368 0
856 -126 127 3366 3368 0
856 126 -127 -3366 -3368 0
856 126 127 -3366 3368 0
856 -126 127 -3366 -3368 0
856 126 127 3366 -3368 0
856 -126 -127 -3366 3368 0
856 126 -127 3366 3368 0
856 -121 -122 3361 -3363 0
856 -121 122 3361 3363 0
856 121 -122 -3361 -3363 0
856 121 122 -3361 3363 0
856 -121 122 -3361 -3363 0
856 121 122 3361 -3363 0
856 -121 -122 -3361 3363 0
856 121 -122 3361 3363 0
856 -519 -561 1680 -1682 0
856 -519 561 1680 1682 0
856 519 -561 -1680 -1682 0
856 519 561 -1680 1682 0
856 -519 561 -1680 -1682 0
856 519 561 1680 -1682 0
856 -519 -561 -1680 1682 0
856 519 -561 1680 1682 0
856 -24 -31 2386 -2388 0
856 -24 31 2386 2388 0
856 24 -31 -2386 -2388 0
856 24 31 -2386 2388 0
856 -24 31 -2386 -2388 0
856 24 31 2386 -2388 0
856 -24 -31 -2386 2388 0
856 24 -31 2386 2388 0
856 -34 -35 4281 -4283 0
856 -34 35 4281 4283 0
856 34 -35 -4281 -4283 0
856 34 35 -4281 4283 0
856 -34 35 -4281 -4283 0
856 34 35 4281 -4283 0
856 -34 -35 -4281 4283 0
856 34 -35 4281 4283 0
856 -38 -39 3378 -3380 0
856 -38 39 3378 3380 0
856 38 -39 -3378 -3380 0
856 38 39 -3378 3380 0
856 -38 39 -3378 -3380 0
856 38 39 3378 -3380 0
856 -38 -39 -3378 3380 0
856 38 -39 3378 3380 0
856 -132 -133 3382 -3384 0
856 -132 133 3382 3384 0
856 132 -133 -3382 -3384 0
856 132 133 -3382 3384 0
856 -132 133 -3382 -3384 0
856 132 133 3382 -3384 0
856 -132 -133 -3382 3384 0
856 132 -133 3382 3384 0
856 380 -429 -473 -1694 0
856 380 -429 473 1694 0
856 -380 429 -473 -1694 0
856 -380 429 473 1694 0
856 -380 -429 473 -1694 0
856 380 429 473 -1694 0
856 -380 -429 -473 1694 0
856 380 429 -473 1694 0
856 -4 -9 4265 -4267 0
856 -4 9 4265 4267 0
856 4 -9 -4265 -4267 0
856 4 9 -4265 4267 0
856 -4 9 -4265 -4267 0
856 4 9 4265 -4267 0
856 -4 -9 -4265 4267 0
856 4 -9 4265 4267 0
856 -49 -275 2374 -2376 0
856 -49 275 2374 2376 0
856 49 -275 -2374 -2376 0
856 49 275 -2374 2376 0
856 -49 275 -2374 -2376 0
856 49 275 2374 -2376 0
856 -49 -275 -2374 2376 0
856 49 -275 2374 2376 0
856 -547 -596 1191 -1193 0
856 -547 596 1191 1193 0
856 547 -596 -1191 -1193 0
856 547 596 -1191 1193 0
856 -547 596 -1191 -1193 0
856 547 596 1191 -1193 0
856 -547 -596 -1191 1193 0
856 547 -596 1191 1193 0
856 -53 -56 3398 -3400 0
856 -53 56 3398 3400 0
856 53 -56 -3398 -3400 0
856 53 56 -3398 3400 0
856 -53 56 -3398 -3400 0
856 53 56 3398 -3400 0
856 -53 -56 -3398 3400 0
856 53 -56 3398 3400 0
856 -101 -103 3402 -3404 0
856 -101 103 3402 3404 0
856 101 -103 -3402 -3404 0
856 101 103 -3402 3404 0
856 -101 103 -3402 -3404 0
856 101 103 3402 -3404 0
856 -101 -103 -3402 3404 0
856 101 -103 3402 3404 0
856 -522 -574 1701 -1703 0
856 -522 574 1701 1703 0
856 522 -574 -1701 -1703 0
856 522 574 -1701 1703 0
856 -522 574 -1701 -1703 0
856 522 574 1701 -1703 0
856 -522 -574 -1701 1703 0
856 522 -574 1701 1703 0
856 -6 -7 3410 -3412 0
856 -6 7 3410 3412 0
856 6 -7 -3410 -3412 0
856 6 7 -3410 3412 0
856 -6 7 -3410 -3412 0
856 6 7 3410 -3412 0
856 -6 -7 -3410 3412 0
856 6 -7 3410 3412 0
856 2 -4 -5 -3410 0
856 2 -4 5 3410 0
856 -2 4 -5 -3410 0
856 -2 4 5 3410 0
856 -2 -4 5 -3410 0
856 2 4 5 -3410 0
856 -2 -4 -5 3410 0
856 2 4 -5 3410 0
856 -56 -58 3414 -3416 0
856 -56 58 3414 3416 0
856 56 -58 -3414 -3416 0
856 56 58 -3414 3416 0
856 -56 58 -3414 -3416 0
856 56 58 3414 -3416 0
856 -56 -58 -3414 3416 0
856 56 -58 3414 3416 0
856 -25 -26 4276 -4278 0
856 -25 26 4276 4278 0
856 25 -26 -4276 -4278 0
856 25 26 -4276 4278 0
856 -25 26 -4276 -4278 0
856 25 26 4276 -4278 0
856 -25 -26 -4276 4278 0
856 25 -26 4276 4278 0
856 -107 -108 3418 -3420 0
856 -107 108 3418 3420 0
856 107 -108 -3418 -3420 0
856 107 108 -3418 3420 0
856 -107 108 -3418 -3420 0
856 107 108 3418 -3420 0
856 -107 -108 -3418 3420 0
856 107 -108 3418 3420 0
856 -575 -623 1709 -1711 0
856 -575 623 1709 1711 0
856 575 -623 -1709 -1711 0
856 575 623 -1709 1711 0
856 -575 623 -1709 -1711 0
856 575 623 1709 -1711 0
856 -575 -623 -1709 1711 0
856 575 -623 1709 1711 0
856 390 -436 -488 -2135 0
856 390 -436 488 2135 0
856 -390 436 -488 -2135 0
856 -390 436 488 2135 0
856 -390 -436 488 -2135 0
856 390 436 488 -2135 0
856 -390 -436 -488 2135 0
856 390 436 -488 2135 0
856 -103 -105 3430 -3432 0
856 -103 105 3430 3432 0
856 103 -105 -3430 -3432 0
856 103 105 -3430 3432 0
856 -103 105 -3430 -3432 0
856 103 105 3430 -3432 0
856 -103 -105 -3430 3432 0
856 103 -105 3430 3432 0
856 -8 -52 3425 -3427 0
856 -8 52 3425 3427 0
856 8 -52 -3425 -3427 0
856 8 52 -3425 3427 0
856 -8 52 -3425 -3427 0
856 8 52 3425 -3427 0
856 -8 -52 -3425 3427 0
856 8 -52 3425 3427 0
856 -576 -624 1716 -1718 0
856 -576 624 1716 1718 0
856 576 -624 -1716 -1718 0
856 576 624 -1716 1718 0
856 -576 624 -1716 -1718 0
856 576 624 1716 -1718 0
856 -576 -624 -1716 1718 0
856 576 -624 1716 1718 0
856 -54 -55 3442 -3444 0
856 -54 55 3442 3444 0
856 54 -55 -3442 -3444 0
856 54 55 -3442 3444 0
856 -54 55 -3442 -3444 0
856 54 55 3442 -3444 0
856 -54 -55 -3442 3444 0
856 54 -55 3442 3444 0
856 -101 -102 3446 -3448 0
856 -101 102 3446 3448 0
856 101 -102 -3446 -3448 0
856 101 102 -3446 3448 0
856 -101 102 -3446 -3448 0
856 101 102 3446 -3448 0
856 -101 -102 -3446 3448 0
856 101 -102 3446 3448 0
856 -107 -108 3450 -3452 0
856 -107 108 3450 3452 0
856 107 -108 -3450 -3452 0
856 107 108 -3450 3452 0
856 -107 108 -3450 -3452 0
856 107 108 3450 -3452 0
856 -107 -108 -3450 3452 0
856 107 -108 3450 3452 0
856 5 -11 -23 -2380 0
856 5 -11 23 2380 0
856 -5 11 -23 -2380 0
856 -5 11 23 2380 0
856 -5 -11 23 -2380 0
856 5 11 23 -2380 0
856 -5 -11 -23 2380 0
856 5 11 -23 2380 0
856 394 -396 -397 -4780 0
856 394 -396 397 4780 0
856 -394 396 -397 -4780 0
856 -394 396 397 4780 0
856 -394 -396 397 -4780 0
856 394 396 397 -4780 0
856 -394 -396 -397 4780 0
856 394 396 -397 4780 0
856 -96 -280 2563 -2565 0
856 -96 280 2563 2565 0
856 96 -280 -2563 -2565 0
856 96 280 -2563 2565 0
856 -96 280 -2563 -2565 0
856 96 280 2563 -2565 0
856 -96 -280 -2563 2565 0
856 96 -280 2563 2565 0
856 -102 -103 3462 -3464 0
856 -102 103 3462 3464 0
856 102 -103 -3462 -3464 0
856 102 103 -3462 3464 0
856 -102 103 -3462 -3464 0
856 102 103 3462 -3464 0
856 -102 -103 -3462 3464 0
856 102 -103 3462 3464 0
856 -6 -51 3457 -3459 0
856 -6 51 3457 3459 0
856 6 -51 -3457 -3459 0
856 6 51 -3457 3459 0
856 -6 51 -3457 -3459 0
856 6 51 3457 -3459 0
856 -6 -51 -3457 3459 0
856 6 -51 3457 3459 0
856 -478 -526 1728 -1730 0
856 -478 526 1728 1730 0
856 478 -526 -1728 -1730 0
856 478 526 -1728 1730 0
856 -478 526 -1728 -1730 0
856 478 526 1728 -1730 0
856 -478 -526 -1728 1730 0
856 478 -526 1728 1730 0
856 393 -395 -396 -4766 0
856 393 -395 396 4766 0
856 -393 395 -396 -4766 0
856 -393 395 396 4766 0
856 -393 -395 396 -4766 0
856 393 395 396 -4766 0
856 -393 -395 -396 4766 0
856 393 395 -396 4766 0
856 52 -68 -80 -2569 0
856 52 -68 80 2569 0
856 -52 68 -80 -2569 0
856 -52 68 80 2569 0
856 -52 -68 80 -2569 0
856 52 68 80 -2569 0
856 -52 -68 -80 2569 0
856 52 68 -80 2569 0
856 2 -3 -4 -3472 0
856 2 -3 4 3472 0
856 -2 3 -4 -3472 0
856 -2 3 4 3472 0
856 -2 -3 4 -3472 0
856 2 3 4 -3472 0
856 -2 -3 -4 3472 0
856 2 3 -4 3472 0
856 -108 -109 3466 -3468 0
856 -108 109 3466 3468 0
856 108 -109 -3466 -3468 0
856 108 109 -3466 3468 0
856 -108 109 -3466 -3468 0
856 108 109 3466 -3468 0
856 -108 -109 -3466 3468 0
856 108 -109 3466 3468 0
856 -51 -53 3474 -3476 0
856 -51 53 3474 3476 0
856 51 -53 -3474 -3476 0
856 51 53 -3474 3476 0
856 -51 53 -3474 -3476 0
856 51 53 3474 -3476 0
856 -51 -53 -3474 3476 0
856 51 -53 3474 3476 0
856 -57 -58 3478 -3480 0
856 -57 58 3478 3480 0
856 57 -58 -3478 -3480 0
856 57 58 -3478 3480 0
856 -57 58 -3478 -3480 0
856 57 58 3478 -3480 0
856 -57 -58 -3478 3480 0
856 57 -58 3478 3480 0
856 -579 -627 1737 -1739 0
856 -579 627 1737 1739 0
856 579 -627 -1737 -1739 0
856 579 627 -1737 1739 0
856 -579 627 -1737 -1739 0
856 579 627 1737 -1739 0
856 -579 -627 -1737 1739 0
856 579 -627 1737 1739 0
856 -47 -273 2360 -2362 0
856 -47 273 2360 2362 0
856 47 -273 -2360 -2362 0
856 47 273 -2360 2362 0
856 -47 273 -2360 -2362 0
856 47 273 2360 -2362 0
856 -47 -273 -2360 2362 0
856 47 -273 2360 2362 0
856 -106 -108 3482 -3484 0
856 -106 108 3482 3484 0
856 106 -108 -3482 -3484 0
856 106 108 -3482 3484 0
856 -106 108 -3482 -3484 0
856 106 108 3482 -3484 0
856 -106 -108 -3482 3484 0
856 106 -108 3482 3484 0
856 -22 -39 2372 -2374 0
856 -22 39 2372 2374 0
856 22 -39 -2372 -2374 0
856 22 39 -2372 2374 0
856 -22 39 -2372 -2374 0
856 22 39 2372 -2374 0
856 -22 -39 -2372 2374 0
856 22 -39 2372 2374 0
856 -402 -406 4768 -4770 0
856 -402 406 4768 4770 0
856 402 -406 -4768 -4770 0
856 402 406 -4768 4770 0
856 -402 406 -4768 -4770 0
856 402 406 4768 -4770 0
856 -402 -406 -4768 4770 0
856 402 -406 4768 4770 0
856 -142 -146 4258 -4260 0
856 -142 146 4258 4260 0
856 142 -146 -4258 -4260 0
856 142 146 -4258 4260 0
856 -142 146 -4258 -4260 0
856 142 146 4258 -4260 0
856 -142 -146 -4258 4260 0
856 142 -146 4258 4260 0
856 -8 -52 3489 -3491 0
856 -8 52 3489 3491 0
856 8 -52 -3489 -3491 0
856 8 52 -3489 3491 0
856 -8 52 -3489 -3491 0
856 8 52 3489 -3491 0
856 -8 -52 -3489 3491 0
856 8 -52 3489 3491 0
856 -580 -628 1744 -1746 0
856 -580 628 1744 1746 0
856 580 -628 -1744 -1746 0
856 580 628 -1744 1746 0
856 -580 628 -1744 -1746 0
856 580 628 1744 -1746 0
856 -580 -628 -1744 1746 0
856 580 -628 1744 1746 0
856 -58 -59 3494 -3496 0
856 -58 59 3494 3496 0
856 58 -59 -3494 -3496 0
856 58 59 -3494 3496 0
856 -58 59 -3494 -3496 0
856 58 59 3494 -3496 0
856 -58 -59 -3494 3496 0
856 58 -59 3494 3496 0
856 492 -497 -498 -5126 0
856 492 -497 498 5126 0
856 -492 497 -498 -5126 0
856 -492 497 498 5126 0
856 -492 -497 498 -5126 0
856 492 497 498 -5126 0
856 -492 -497 -498 5126 0
856 492 497 -498 5126 0
856 -107 -109 3498 -3500 0
856 -107 109 3498 3500 0
856 107 -109 -3498 -3500 0
856 107 109 -3498 3500 0
856 -107 109 -3498 -3500 0
856 107 109 3498 -3500 0
856 -107 -109 -3498 3500 0
856 107 -109 3498 3500 0
856 378 -427 -471 -1750 0
856 378 -427 471 1750 0
856 -378 427 -471 -1750 0
856 -378 427 471 1750 0
856 -378 -427 471 -1750 0
856 378 427 471 -1750 0
856 -378 -427 -471 1750 0
856 378 427 -471 1750 0
856 4 -5 -6 -3504 0
856 4 -5 6 3504 0
856 -4 5 -6 -3504 0
856 -4 5 6 3504 0
856 -4 -5 6 -3504 0
856 4 5 6 -3504 0
856 -4 -5 -6 3504 0
856 4 5 -6 3504 0
856 -51 -52 3506 -3508 0
856 -51 52 3506 3508 0
856 51 -52 -3506 -3508 0
856 51 52 -3506 3508 0
856 -51 52 -3506 -3508 0
856 51 52 3506 -3508 0
856 -51 -52 -3506 3508 0
856 51 -52 3506 3508 0
856 -101 -102 3510 -3512 0
856 -101 102 3510 3512 0
856 101 -102 -3510 -3512 0
856 101 102 -3510 3512 0
856 -101 102 -3510 -3512 0
856 101 102 3510 -3512 0
856 -101 -102 -3510 3512 0
856 101 -102 3510 3512 0
856 -107 -109 3514 -3516 0
856 -107 109 3514 3516 0
856 107 -109 -3514 -3516 0
856 107 109 -3514 3516 0
856 -107 109 -3514 -3516 0
856 107 109 3514 -3516 0
856 -107 -109 -3514 3516 0
856 107 -109 3514 3516 0
856 -48 -274 2367 -2369 0
856 -48 274 2367 2369 0
856 48 -274 -2367 -2369 0
856 48 274 -2367 2369 0
856 -48 274 -2367 -2369 0
856 48 274 2367 -2369 0
856 -48 -274 -2367 2369 0
856 48 -274 2367 2369 0
856 -530 -572 1757 -1759 0
856 -530 572 1757 1759 0
856 530 -572 -1757 -1759 0
856 530 572 -1757 1759 0
856 -530 572 -1757 -1759 0
856 530 572 1757 -1759 0
856 -530 -572 -1757 1759 0
856 530 -572 1757 1759 0
856 56 -65 -79 -2506 0
856 56 -65 79 2506 0
856 -56 65 -79 -2506 0
856 -56 65 79 2506 0
856 -56 -65 79 -2506 0
856 56 65 79 -2506 0
856 -56 -65 -79 2506 0
856 56 65 -79 2506 0
856 -101 -104 3526 -3528 0
856 -101 104 3526 3528 0
856 101 -104 -3526 -3528 0
856 101 104 -3526 3528 0
856 -101 104 -3526 -3528 0
856 101 104 3526 -3528 0
856 -101 -104 -3526 3528 0
856 101 -104 3526 3528 0
856 390 -439 -483 -1764 0
856 390 -439 483 1764 0
856 -390 439 -483 -1764 0
856 -390 439 483 1764 0
856 -390 -439 483 -1764 0
856 390 439 483 -1764 0
856 -390 -439 -483 1764 0
856 390 439 -483 1764 0
856 -409 -411 4743 -4745 0
856 -409 411 4743 4745 0
856 409 -411 -4743 -4745 0
856 409 411 -4743 4745 0
856 -409 411 -4743 -4745 0
856 409 411 4743 -4745 0
856 -409 -411 -4743 4745 0
856 409 -411 4743 4745 0
856 -531 -583 1764 -1766 0
856 -531 583 1764 1766 0
856 531 -583 -1764 -1766 0
856 531 583 -1764 1766 0
856 -531 583 -1764 -1766 0
856 531 583 1764 -1766 0
856 -531 -583 -1764 1766 0
856 531 -583 1764 1766 0
856 -8 -9 3534 -3536 0
856 -8 9 3534 3536 0
856 8 -9 -3534 -3536 0
856 8 9 -3534 3536 0
856 -8 9 -3534 -3536 0
856 8 9 3534 -3536 0
856 -8 -9 -3534 3536 0
856 8 -9 3534 3536 0
856 341 -393 -446 -1183 0
856 341 -393 446 1183 0
856 -341 393 -446 -1183 0
856 -341 393 446 1183 0
856 -341 -393 446 -1183 0
856 341 393 446 -1183 0
856 -341 -393 -446 1183 0
856 341 393 -446 1183 0
856 -56 -59 3538 -3540 0
856 -56 59 3538 3540 0
856 56 -59 -3538 -3540 0
856 56 59 -3538 3540 0
856 -56 59 -3538 -3540 0
856 56 59 3538 -3540 0
856 -56 -59 -3538 3540 0
856 56 -59 3538 3540 0
856 365 -417 -470 -1281 0
856 365 -417 470 1281 0
856 -365 417 -470 -1281 0
856 -365 417 470 1281 0
856 -365 -417 470 -1281 0
856 365 417 470 -1281 0
856 -365 -417 -470 1281 0
856 365 417 -470 1281 0
856 -104 -107 3542 -3544 0
856 -104 107 3542 3544 0
856 104 -107 -3542 -3544 0
856 104 107 -3542 3544 0
856 -104 107 -3542 -3544 0
856 104 107 3542 -3544 0
856 -104 -107 -3542 3544 0
856 104 -107 3542 3544 0
856 -21 -38 2365 -2367 0
856 -21 38 2365 2367 0
856 21 -38 -2365 -2367 0
856 21 38 -2365 2367 0
856 -21 38 -2365 -2367 0
856 21 38 2365 -2367 0
856 -21 -38 -2365 2367 0
856 21 -38 2365 2367 0
856 -584 -624 1772 -1774 0
856 -584 624 1772 1774 0
856 584 -624 -1772 -1774 0
856 584 624 -1772 1774 0
856 -584 624 -1772 -1774 0
856 584 624 1772 -1774 0
856 -584 -624 -1772 1774 0
856 584 -624 1772 1774 0
856 -111 -113 3558 -3560 0
856 -111 113 3558 3560 0
856 111 -113 -3558 -3560 0
856 111 113 -3558 3560 0
856 -111 113 -3558 -3560 0
856 111 113 3558 -3560 0
856 -111 -113 -3558 3560 0
856 111 -113 3558 3560 0
856 382 -431 -485 -1778 0
856 382 -431 485 1778 0
856 -382 431 -485 -1778 0
856 -382 431 485 1778 0
856 -382 -431 485 -1778 0
856 382 431 485 -1778 0
856 -382 -431 -485 1778 0
856 382 431 -485 1778 0
856 392 -397 -398 -4736 0
856 392 -397 398 4736 0
856 -392 397 -398 -4736 0
856 -392 397 398 4736 0
856 -392 -397 398 -4736 0
856 392 397 398 -4736 0
856 -392 -397 -398 4736 0
856 392 397 -398 4736 0
856 -66 -68 3570 -3572 0
856 -66 68 3570 3572 0
856 66 -68 -3570 -3572 0
856 66 68 -3570 3572 0
856 -66 68 -3570 -3572 0
856 66 68 3570 -3572 0
856 -66 -68 -3570 3572 0
856 66 -68 3570 3572 0
856 -117 -118 3574 -3576 0
856 -117 118 3574 3576 0
856 117 -118 -3574 -3576 0
856 117 118 -3574 3576 0
856 -117 118 -3574 -3576 0
856 117 118 3574 -3576 0
856 -117 -118 -3574 3576 0
856 117 -118 3574 3576 0
856 -76 -81 4178 -4180 0
856 -76 81 4178 4180 0
856 76 -81 -4178 -4180 0
856 76 81 -4178 4180 0
856 -76 81 -4178 -4180 0
856 76 81 4178 -4180 0
856 -76 -81 -4178 4180 0
856 76 -81 4178 4180 0
856 -474 -521 2106 -2108 0
856 -474 521 2106 2108 0
856 474 -521 -2106 -2108 0
856 474 521 -2106 2108 0
856 -474 521 -2106 -2108 0
856 474 521 2106 -2108 0
856 -474 -521 -2106 2108 0
856 474 -521 2106 2108 0
856 388 -434 -486 -2121 0
856 388 -434 486 2121 0
856 -388 434 -486 -2121 0
856 -388 434 486 2121 0
856 -388 -434 486 -2121 0
856 388 434 486 -2121 0
856 -388 -434 -486 2121 0
856 388 434 -486 2121 0
856 -69 -113 3585 -3587 0
856 -69 113 3585 3587 0
856 69 -113 -3585 -3587 0
856 69 113 -3585 3587 0
856 -69 113 -3585 -3587 0
856 69 113 3585 -3587 0
856 -69 -113 -3585 3587 0
856 69 -113 3585 3587 0
856 -535 -587 1792 -1794 0
856 -535 587 1792 1794 0
856 535 -587 -1792 -1794 0
856 535 587 -1792 1794 0
856 -535 587 -1792 -1794 0
856 535 587 1792 -1794 0
856 -535 -587 -1792 1794 0
856 535 -587 1792 1794 0
856 -66 -67 3583 -3585 0
856 -66 67 3583 3585 0
856 66 -67 -3583 -3585 0
856 66 67 -3583 3585 0
856 -66 67 -3583 -3585 0
856 66 67 3583 -3585 0
856 -66 -67 -3583 3585 0
856 66 -67 3583 3585 0
856 2 -18 -30 -2359 0
856 2 -18 30 2359 0
856 -2 18 -30 -2359 0
856 -2 18 30 2359 0
856 -2 -18 30 -2359 0
856 2 18 30 -2359 0
856 -2 -18 -30 2359 0
856 2 18 -30 2359 0
856 -569 -593 1275 -1277 0
856 -569 593 1275 1277 0
856 569 -593 -1275 -1277 0
856 569 593 -1275 1277 0
856 -569 593 -1275 -1277 0
856 569 593 1275 -1277 0
856 -569 -593 -1275 1277 0
856 569 -593 1275 1277 0
856 -62 -64 3597 -3599 0
856 -62 64 3597 3599 0
856 62 -64 -3597 -3599 0
856 62 64 -3597 3599 0
856 -62 64 -3597 -3599 0
856 62 64 3597 -3599 0
856 -62 -64 -3597 3599 0
856 62 -64 3597 3599 0
856 -69 -111 3601 -3603 0
856 -69 111 3601 3603 0
856 69 -111 -3601 -3603 0
856 69 111 -3601 3603 0
856 -69 111 -3601 -3603 0
856 69 111 3601 -3603 0
856 -69 -111 -3601 3603 0
856 69 -111 3601 3603 0
856 -588 -628 1800 -1802 0
856 -588 628 1800 1802 0
856 588 -628 -1800 -1802 0
856 588 628 -1800 1802 0
856 -588 628 -1800 -1802 0
856 588 628 1800 -1802 0
856 -588 -628 -1800 1802 0
856 588 -628 1800 1802 0
856 -117 -118 3606 -3608 0
856 -117 118 3606 3608 0
856 117 -118 -3606 -3608 0
856 117 118 -3606 3608 0
856 -117 118 -3606 -3608 0
856 117 118 3606 -3608 0
856 -117 -118 -3606 3608 0
856 117 -118 3606 3608 0
856 10 -16 -28 -2345 0
856 10 -16 28 2345 0
856 -10 16 -28 -2345 0
856 -10 16 28 2345 0
856 -10 -16 28 -2345 0
856 10 16 28 -2345 0
856 -10 -16 -28 2345 0
856 10 16 -28 2345 0
856 386 -435 -489 -1806 0
856 386 -435 489 1806 0
856 -386 435 -489 -1806 0
856 -386 435 489 1806 0
856 -386 -435 489 -1806 0
856 386 435 489 -1806 0
856 -386 -435 -489 1806 0
856 386 435 -489 1806 0
856 -82 -92 2534 -2536 0
856 -82 92 2534 2536 0
856 82 -92 -2534 -2536 0
856 82 92 -2534 2536 0
856 -82 92 -2534 -2536 0
856 82 92 2534 -2536 0
856 -82 -92 -2534 2536 0
856 82 -92 2534 2536 0
856 -96 -98 4243 -4245 0
856 -96 98 4243 4245 0
856 96 -98 -4243 -4245 0
856 96 98 -4243 4245 0
856 -96 98 -4243 -4245 0
856 96 98 4243 -4245 0
856 -96 -98 -4243 4245 0
856 96 -98 4243 4245 0
856 -583 -654 2122 -2124 0
856 -583 654 2122 2124 0
856 583 -654 -2122 -2124 0
856 583 654 -2122 2124 0
856 -583 654 -2122 -2124 0
856 583 654 2122 -2124 0
856 -583 -654 -2122 2124 0
856 583 -654 2122 2124 0
856 -545 -594 1177 -1179 0
856 -545 594 1177 1179 0
856 545 -594 -1177 -1179 0
856 545 594 -1177 1179 0
856 -545 594 -1177 -1179 0
856 545 594 1177 -1179 0
856 -545 -594 -1177 1179 0
856 545 -594 1177 1179 0
856 -118 -119 3622 -3624 0
856 -118 119 3622 3624 0
856 118 -119 -3622 -3624 0
856 118 119 -3622 3624 0
856 -118 119 -3622 -3624 0
856 118 119 3622 -3624 0
856 -118 -119 -3622 3624 0
856 118 -119 3622 3624 0
856 -490 -538 1812 -1814 0
856 -490 538 1812 1814 0
856 490 -538 -1812 -1814 0
856 490 538 -1812 1814 0
856 -490 538 -1812 -1814 0
856 490 538 1812 -1814 0
856 -490 -538 -1812 1814 0
856 490 -538 1812 1814 0
856 -67 -68 3634 -3636 0
856 -67 68 3634 3636 0
856 67 -68 -3634 -3636 0
856 67 68 -3634 3636 0
856 -67 68 -3634 -3636 0
856 67 68 3634 -3636 0
856 -67 -68 -3634 3636 0
856 67 -68 3634 3636 0
856 -116 -118 3638 -3640 0
856 -116 118 3638 3640 0
856 116 -118 -3638 -3640 0
856 116 118 -3638 3640 0
856 -116 118 -3638 -3640 0
856 116 118 3638 -3640 0
856 -116 -118 -3638 3640 0
856 116 -118 3638 3640 0
856 -46 -272 2353 -2355 0
856 -46 272 2353 2355 0
856 46 -272 -2353 -2355 0
856 46 272 -2353 2355 0
856 -46 272 -2353 -2355 0
856 46 272 2353 -2355 0
856 -46 -272 -2353 2355 0
856 46 -272 2353 2355 0
856 -539 -581 1820 -1822 0
856 -539 581 1820 1822 0
856 539 -581 -1820 -1822 0
856 539 581 -1820 1822 0
856 -539 581 -1820 -1822 0
856 539 581 1820 -1822 0
856 -539 -581 -1820 1822 0
856 539 -581 1820 1822 0
856 -445 -497 1175 -1177 0
856 -445 497 1175 1177 0
856 445 -497 -1175 -1177 0
856 445 497 -1175 1177 0
856 -445 497 -1175 -1177 0
856 445 497 1175 -1177 0
856 -445 -497 -1175 1177 0
856 445 -497 1175 1177 0
856 -117 -119 3654 -3656 0
856 -117 119 3654 3656 0
856 117 -119 -3654 -3656 0
856 117 119 -3654 3656 0
856 -117 119 -3654 -3656 0
856 117 119 3654 -3656 0
856 -117 -119 -3654 3656 0
856 117 -119 3654 3656 0
856 389 -438 -482 -1827 0
856 389 -438 482 1827 0
856 -389 438 -482 -1827 0
856 -389 438 482 1827 0
856 -389 -438 482 -1827 0
856 389 438 482 -1827 0
856 -389 -438 -482 1827 0
856 389 438 -482 1827 0
856 -404 -405 4706 -4708 0
856 -404 405 4706 4708 0
856 404 -405 -4706 -4708 0
856 404 405 -4706 4708 0
856 -404 405 -4706 -4708 0
856 404 405 4706 -4708 0
856 -404 -405 -4706 4708 0
856 404 -405 4706 4708 0
856 -61 -62 3662 -3664 0
856 -61 62 3662 3664 0
856 61 -62 -3662 -3664 0
856 61 62 -3662 3664 0
856 -61 62 -3662 -3664 0
856 61 62 3662 -3664 0
856 -61 -62 -3662 3664 0
856 61 -62 3662 3664 0
856 -73 -74 4237 -4239 0
856 -73 74 4237 4239 0
856 73 -74 -4237 -4239 0
856 73 74 -4237 4239 0
856 -73 74 -4237 -4239 0
856 73 74 4237 -4239 0
856 -73 -74 -4237 4239 0
856 73 -74 4237 4239 0
856 -111 -112 3666 -3668 0
856 -111 112 3666 3668 0
856 111 -112 -3666 -3668 0
856 111 112 -3666 3668 0
856 -111 112 -3666 -3668 0
856 111 112 3666 -3668 0
856 -111 -112 -3666 3668 0
856 111 -112 3666 3668 0
856 -117 -119 3670 -3672 0
856 -117 119 3670 3672 0
856 117 -119 -3670 -3672 0
856 117 119 -3670 3672 0
856 -117 119 -3670 -3672 0
856 117 119 3670 -3672 0
856 -117 -119 -3670 3672 0
856 117 -119 3670 3672 0
856 -408 -409 4710 -4712 0
856 -408 409 4710 4712 0
856 408 -409 -4710 -4712 0
856 408 409 -4710 4712 0
856 -408 409 -4710 -4712 0
856 408 409 4710 -4712 0
856 -408 -409 -4710 4712 0
856 408 -409 4710 4712 0
856 -582 -653 2115 -2117 0
856 -582 653 2115 2117 0
856 582 -653 -2115 -2117 0
856 582 653 -2115 2117 0
856 -582 653 -2115 -2117 0
856 582 653 2115 -2117 0
856 -582 -653 -2115 2117 0
856 582 -653 2115 2117 0
856 -68 -111 3681 -3683 0
856 -68 111 3681 3683 0
856 68 -111 -3681 -3683 0
856 68 111 -3681 3683 0
856 -68 111 -3681 -3683 0
856 68 111 3681 -3683 0
856 -68 -111 -3681 3683 0
856 68 -111 3681 3683 0
856 -446 -493 1840 -1842 0
856 -446 493 1840 1842 0
856 446 -493 -1840 -1842 0
856 446 493 -1840 1842 0
856 -446 493 -1840 -1842 0
856 446 493 1840 -1842 0
856 -446 -493 -1840 1842 0
856 446 -493 1840 1842 0
856 -395 -396 4697 -4699 0
856 -395 396 4697 4699 0
856 395 -396 -4697 -4699 0
856 395 396 -4697 4699 0
856 -395 396 -4697 -4699 0
856 395 396 4697 -4699 0
856 -395 -396 -4697 4699 0
856 395 -396 4697 4699 0
856 -45 -271 2346 -2348 0
856 -45 271 2346 2348 0
856 45 -271 -2346 -2348 0
856 45 271 -2346 2348 0
856 -45 271 -2346 -2348 0
856 45 271 2346 -2348 0
856 -45 -271 -2346 2348 0
856 45 -271 2346 2348 0
856 -59 -61 4233 -4235 0
856 -59 61 4233 4235 0
856 59 -61 -4233 -4235 0
856 59 61 -4233 4235 0
856 -59 61 -4233 -4235 0
856 59 61 4233 -4235 0
856 -59 -61 -4233 4235 0
856 59 -61 4233 4235 0
856 -121 -123 3698 -3700 0
856 -121 123 3698 3700 0
856 121 -123 -3698 -3700 0
856 121 123 -3698 3700 0
856 -121 123 -3698 -3700 0
856 121 123 3698 -3700 0
856 -121 -123 -3698 3700 0
856 121 -123 3698 3700 0
856 -544 -660 1849 -1851 0
856 -544 660 1849 1851 0
856 544 -660 -1849 -1851 0
856 544 660 -1849 1851 0
856 -544 660 -1849 -1851 0
856 544 660 1849 -1851 0
856 -544 -660 -1849 1851 0
856 544 -660 1849 1851 0
856 -89 -131 3713 -3715 0
856 -89 131 3713 3715 0
856 89 -131 -3713 -3715 0
856 89 131 -3713 3715 0
856 -89 131 -3713 -3715 0
856 89 131 3713 -3715 0
856 -89 -131 -3713 3715 0
856 89 -131 3713 3715 0
856 -545 -651 1856 -1858 0
856 -545 651 1856 1858 0
856 545 -651 -1856 -1858 0
856 545 651 -1856 1858 0
856 -545 651 -1856 -1858 0
856 545 651 1856 -1858 0
856 -545 -651 -1856 1858 0
856 545 -651 1856 1858 0
856 -86 -88 3711 -3713 0
856 -86 88 3711 3713 0
856 86 -88 -3711 -3713 0
856 86 88 -3711 3713 0
856 -86 88 -3711 -3713 0
856 86 88 3711 -3713 0
856 -86 -88 -3711 3713 0
856 86 -88 3711 3713 0
856 -496 -497 5108 -5110 0
856 -496 497 5108 5110 0
856 496 -497 -5108 -5110 0
856 496 497 -5108 5110 0
856 -496 497 -5108 -5110 0
856 496 497 5108 -5110 0
856 -496 -497 -5108 5110 0
856 496 -497 5108 5110 0
856 -508 -509 5346 -5348 0
856 -508 509 5346 5348 0
856 508 -509 -5346 -5348 0
856 508 509 -5346 5348 0
856 -508 509 -5346 -5348 0
856 508 509 5346 -5348 0
856 -508 -509 -5346 5348 0
856 508 -509 5346 5348 0
856 341 -397 -449 -1862 0
856 341 -397 449 1862 0
856 -341 397 -449 -1862 0
856 -341 397 449 1862 0
856 -341 -397 449 -1862 0
856 341 397 449 -1862 0
856 -341 -397 -449 1862 0
856 341 397 -449 1862 0
856 -86 -88 3726 -3728 0
856 -86 88 3726 3728 0
856 86 -88 -3726 -3728 0
856 86 88 -3726 3728 0
856 -86 88 -3726 -3728 0
856 86 88 3726 -3728 0
856 -86 -88 -3726 3728 0
856 86 -88 3726 3728 0
856 -543 -592 1163 -1165 0
856 -543 592 1163 1165 0
856 543 -592 -1163 -1165 0
856 543 592 -1163 1165 0
856 -543 592 -1163 -1165 0
856 543 592 1163 -1165 0
856 -543 -592 -1163 1165 0
856 543 -592 1163 1165 0
856 -137 -138 3730 -3732 0
856 -137 138 3730 3732 0
856 137 -138 -3730 -3732 0
856 137 138 -3730 3732 0
856 -137 138 -3730 -3732 0
856 137 138 3730 -3732 0
856 -137 -138 -3730 3732 0
856 137 -138 3730 3732 0
856 -544 -593 1170 -1172 0
856 -544 593 1170 1172 0
856 544 -593 -1170 -1172 0
856 544 593 -1170 1172 0
856 -544 593 -1170 -1172 0
856 544 593 1170 -1172 0
856 -544 -593 -1170 1172 0
856 544 -593 1170 1172 0
856 1 -2 -3 -3736 0
856 1 -2 3 3736 0
856 -1 2 -3 -3736 0
856 -1 2 3 3736 0
856 -1 -2 3 -3736 0
856 1 2 3 -3736 0
856 -1 -2 -3 3736 0
856 1 2 -3 3736 0
856 -44 -280 2339 -2341 0
856 -44 280 2339 2341 0
856 44 -280 -2339 -2341 0
856 44 280 -2339 2341 0
856 -44 280 -2339 -2341 0
856 44 280 2339 -2341 0
856 -44 -280 -2339 2341 0
856 44 -280 2339 2341 0
856 9 -15 -27 -2338 0
856 9 -15 27 2338 0
856 -9 15 -27 -2338 0
856 -9 15 27 2338 0
856 -9 -15 27 -2338 0
856 9 15 27 -2338 0
856 -9 -15 -27 2338 0
856 9 15 -27 2338 0
856 2 -3 -4 -3752 0
856 2 -3 4 3752 0
856 -2 3 -4 -3752 0
856 -2 3 4 3752 0
856 -2 -3 4 -3752 0
856 2 3 4 -3752 0
856 -2 -3 -4 3752 0
856 2 3 -4 3752 0
856 -107 -109 3746 -3748 0
856 -107 109 3746 3748 0
856 107 -109 -3746 -3748 0
856 107 109 -3746 3748 0
856 -107 109 -3746 -3748 0
856 107 109 3746 -3748 0
856 -107 -109 -3746 3748 0
856 107 -109 3746 3748 0
856 -548 -654 1877 -1879 0
856 -548 654 1877 1879 0
856 548 -654 -1877 -1879 0
856 548 654 -1877 1879 0
856 -548 654 -1877 -1879 0
856 548 654 1877 -1879 0
856 -548 -654 -1877 1879 0
856 548 -654 1877 1879 0
856 -106 -109 3762 -3764 0
856 -106 109 3762 3764 0
856 106 -109 -3762 -3764 0
856 106 109 -3762 3764 0
856 -106 109 -3762 -3764 0
856 106 109 3762 -3764 0
856 -106 -109 -3762 3764 0
856 106 -109 3762 3764 0
856 344 -400 -442 -1883 0
856 344 -400 442 1883 0
856 -344 400 -442 -1883 0
856 -344 400 442 1883 0
856 -344 -400 442 -1883 0
856 344 400 442 -1883 0
856 -344 -400 -442 1883 0
856 344 400 -442 1883 0
856 1 -2 -7 -3768 0
856 1 -2 7 3768 0
856 -1 2 -7 -3768 0
856 -1 2 7 3768 0
856 -1 -2 7 -3768 0
856 1 2 7 -3768 0
856 -1 -2 -7 3768 0
856 1 2 -7 3768 0
856 -462 -463 5042 -5044 0
856 -462 463 5042 5044 0
856 462 -463 -5042 -5044 0
856 462 463 -5042 5044 0
856 -462 463 -5042 -5044 0
856 462 463 5042 -5044 0
856 -462 -463 -5042 5044 0
856 462 -463 5042 5044 0
856 -59 -101 3775 -3777 0
856 -59 101 3775 3777 0
856 59 -101 -3775 -3777 0
856 59 101 -3775 3777 0
856 -59 101 -3775 -3777 0
856 59 101 3775 -3777 0
856 -59 -101 -3775 3777 0
856 59 -101 3775 3777 0
856 345 -391 -443 -1890 0
856 345 -391 443 1890 0
856 -345 391 -443 -1890 0
856 -345 391 443 1890 0
856 -345 -391 443 -1890 0
856 345 391 443 -1890 0
856 -345 -391 -443 1890 0
856 345 391 -443 1890 0
856 -104 -105 3777 -3779 0
856 -104 105 3777 3779 0
856 104 -105 -3777 -3779 0
856 104 105 -3777 3779 0
856 -104 105 -3777 -3779 0
856 104 105 3777 -3779 0
856 -104 -105 -3777 3779 0
856 104 -105 3777 3779 0
856 -357 -359 4668 -4670 0
856 -357 359 4668 4670 0
856 357 -359 -4668 -4670 0
856 357 359 -4668 4670 0
856 -357 359 -4668 -4670 0
856 357 359 4668 -4670 0
856 -357 -359 -4668 4670 0
856 357 -359 4668 4670 0
856 -76 -83 2540 -2542 0
856 -76 83 2540 2542 0
856 76 -83 -2540 -2542 0
856 76 83 -2540 2542 0
856 -76 83 -2540 -2542 0
856 76 83 2540 -2542 0
856 -76 -83 -2540 2542 0
856 76 -83 2540 2542 0
856 -9 -10 3786 -3788 0
856 -9 10 3786 3788 0
856 9 -10 -3786 -3788 0
856 9 10 -3786 3788 0
856 -9 10 -3786 -3788 0
856 9 10 3786 -3788 0
856 -9 -10 -3786 3788 0
856 9 -10 3786 3788 0
856 -54 -58 3790 -3792 0
856 -54 58 3790 3792 0
856 54 -58 -3790 -3792 0
856 54 58 -3790 3792 0
856 -54 58 -3790 -3792 0
856 54 58 3790 -3792 0
856 -54 -58 -3790 3792 0
856 54 -58 3790 3792 0
856 -104 -108 3794 -3796 0
856 -104 108 3794 3796 0
856 104 -108 -3794 -3796 0
856 104 108 -3794 3796 0
856 -104 108 -3794 -3796 0
856 104 108 3794 -3796 0
856 -104 -108 -3794 3796 0
856 104 -108 3794 3796 0
856 -52 -53 3802 -3804 0
856 -52 53 3802 3804 0
856 52 -53 -3802 -3804 0
856 52 53 -3802 3804 0
856 -52 53 -3802 -3804 0
856 52 53 3802 -3804 0
856 -52 -53 -3802 3804 0
856 52 -53 3802 3804 0
856 -368 -369 4672 -4674 0
856 -368 369 4672 4674 0
856 368 -369 -4672 -4674 0
856 368 369 -4672 4674 0
856 -368 369 -4672 -4674 0
856 368 369 4672 -4674 0
856 -368 -369 -4672 4674 0
856 368 -369 4672 4674 0
856 -502 -552 1904 -1906 0
856 -502 552 1904 1906 0
856 502 -552 -1904 -1906 0
856 502 552 -1904 1906 0
856 -502 552 -1904 -1906 0
856 502 552 1904 -1906 0
856 -502 -552 -1904 1906 0
856 502 -552 1904 1906 0
856 -105 -109 3808 -3810 0
856 -105 109 3808 3810 0
856 105 -109 -3808 -3810 0
856 105 109 -3808 3810 0
856 -105 109 -3808 -3810 0
856 105 109 3808 -3810 0
856 -105 -109 -3808 3810 0
856 105 -109 3808 3810 0
856 -5 -10 3814 -3816 0
856 -5 10 3814 3816 0
856 5 -10 -3814 -3816 0
856 5 10 -3814 3816 0
856 -5 10 -3814 -3816 0
856 5 10 3814 -3816 0
856 -5 -10 -3814 3816 0
856 5 -10 3814 3816 0
856 -55 -57 3818 -3820 0
856 -55 57 3818 3820 0
856 55 -57 -3818 -3820 0
856 55 57 -3818 3820 0
856 -55 57 -3818 -3820 0
856 55 57 3818 -3820 0
856 -55 -57 -3818 3820 0
856 55 -57 3818 3820 0
856 358 -404 -456 -1911 0
856 358 -404 456 1911 0
856 -358 404 -456 -1911 0
856 -358 404 456 1911 0
856 -358 -404 456 -1911 0
856 358 404 456 -1911 0
856 -358 -404 -456 1911 0
856 358 404 -456 1911 0
856 -108 -109 3826 -3828 0
856 -108 109 3826 3828 0
856 108 -109 -3826 -3828 0
856 108 109 -3826 3828 0
856 -108 109 -3826 -3828 0
856 108 109 3826 -3828 0
856 -108 -109 -3826 3828 0
856 108 -109 3826 3828 0
856 1 -2 -3 -3832 0
856 1 -2 3 3832 0
856 -1 2 -3 -3832 0
856 -1 2 3 3832 0
856 -1 -2 3 -3832 0
856 1 2 3 -3832 0
856 -1 -2 -3 3832 0
856 1 2 -3 3832 0
856 -504 -554 1918 -1920 0
856 -504 554 1918 1920 0
856 504 -554 -1918 -1920 0
856 504 554 -1918 1920 0
856 -504 554 -1918 -1920 0
856 504 554 1918 -1920 0
856 -504 -554 -1918 1920 0
856 504 -554 1918 1920 0
856 -88 -89 4182 -4184 0
856 -88 89 4182 4184 0
856 88 -89 -4182 -4184 0
856 88 89 -4182 4184 0
856 -88 89 -4182 -4184 0
856 88 89 4182 -4184 0
856 -88 -89 -4182 4184 0
856 88 -89 4182 4184 0
856 375 -421 -473 -2100 0
856 375 -421 473 2100 0
856 -375 421 -473 -2100 0
856 -375 421 473 2100 0
856 -375 -421 473 -2100 0
856 375 421 473 -2100 0
856 -375 -421 -473 2100 0
856 375 421 -473 2100 0
856 -5 -8 4215 -4217 0
856 -5 8 4215 4217 0
856 5 -8 -4215 -4217 0
856 5 8 -4215 4217 0
856 -5 8 -4215 -4217 0
856 5 8 4215 -4217 0
856 -5 -8 -4215 4217 0
856 5 -8 4215 4217 0
856 -506 -507 5098 -5100 0
856 -506 507 5098 5100 0
856 506 -507 -5098 -5100 0
856 506 507 -5098 5100 0
856 -506 507 -5098 -5100 0
856 506 507 5098 -5100 0
856 -506 -507 -5098 5100 0
856 506 -507 5098 5100 0
856 -558 -595 1268 -1270 0
856 -558 595 1268 1270 0
856 558 -595 -1268 -1270 0
856 558 595 -1268 1270 0
856 -558 595 -1268 -1270 0
856 558 595 1268 -1270 0
856 -558 -595 -1268 1270 0
856 558 -595 1268 1270 0
856 2 -3 -4 -3846 0
856 2 -3 4 3846 0
856 -2 3 -4 -3846 0
856 -2 3 4 3846 0
856 -2 -3 4 -3846 0
856 2 3 4 -3846 0
856 -2 -3 -4 3846 0
856 2 3 -4 3846 0
856 -52 -55 3848 -3850 0
856 -52 55 3848 3850 0
856 52 -55 -3848 -3850 0
856 52 55 -3848 3850 0
856 -52 55 -3848 -3850 0
856 52 55 3848 -3850 0
856 -52 -55 -3848 3850 0
856 52 -55 3848 3850 0
856 -102 -105 3852 -3854 0
856 -102 105 3852 3854 0
856 102 -105 -3852 -3854 0
856 102 105 -3852 3854 0
856 -102 105 -3852 -3854 0
856 102 105 3852 -3854 0
856 -102 -105 -3852 3854 0
856 102 -105 3852 3854 0
856 -494 -542 1155 -1157 0
856 -494 542 1155 1157 0
856 494 -542 -1155 -1157 0
856 494 542 -1155 1157 0
856 -494 542 -1155 -1157 0
856 494 542 1155 -1157 0
856 -494 -542 -1155 1157 0
856 494 -542 1155 1157 0
856 -53 -56 3862 -3864 0
856 -53 56 3862 3864 0
856 53 -56 -3862 -3864 0
856 53 56 -3862 3864 0
856 -53 56 -3862 -3864 0
856 53 56 3862 -3864 0
856 -53 -56 -3862 3864 0
856 53 -56 3862 3864 0
856 -556 -660 1933 -1935 0
856 -556 660 1933 1935 0
856 556 -660 -1933 -1935 0
856 556 660 -1933 1935 0
856 -556 660 -1933 -1935 0
856 556 660 1933 -1935 0
856 -556 -660 -1933 1935 0
856 556 -660 1933 1935 0
856 -355 -356 4653 -4655 0
856 -355 356 4653 4655 0
856 355 -356 -4653 -4655 0
856 355 356 -4653 4655 0
856 -355 356 -4653 -4655 0
856 355 356 4653 -4655 0
856 -355 -356 -4653 4655 0
856 355 -356 4653 4655 0
856 -42 -278 2325 -2327 0
856 -42 278 2325 2327 0
856 42 -278 -2325 -2327 0
856 42 278 -2325 2327 0
856 -42 278 -2325 -2327 0
856 42 278 2325 -2327 0
856 -42 -278 -2325 2327 0
856 42 -278 2325 2327 0
856 491 -492 -493 -5106 0
856 491 -492 493 5106 0
856 -491 492 -493 -5106 0
856 -491 492 493 5106 0
856 -491 -492 493 -5106 0
856 491 492 493 -5106 0
856 -491 -492 -493 5106 0
856 491 492 -493 5106 0
856 4 -5 -6 -3874 0
856 4 -5 6 3874 0
856 -4 5 -6 -3874 0
856 -4 5 6 3874 0
856 -4 -5 6 -3874 0
856 4 5 6 -3874 0
856 -4 -5 -6 3874 0
856 4 5 -6 3874 0
856 -53 -55 3878 -3880 0
856 -53 55 3878 3880 0
856 53 -55 -3878 -3880 0
856 53 55 -3878 3880 0
856 -53 55 -3878 -3880 0
856 53 55 3878 -3880 0
856 -53 -55 -3878 3880 0
856 53 -55 3878 3880 0
856 352 -408 -460 -1939 0
856 352 -408 460 1939 0
856 -352 408 -460 -1939 0
856 -352 408 460 1939 0
856 -352 -408 460 -1939 0
856 352 408 460 -1939 0
856 -352 -408 -460 1939 0
856 352 408 -460 1939 0
856 -443 -495 1161 -1163 0
856 -443 495 1161 1163 0
856 443 -495 -1161 -1163 0
856 443 495 -1161 1163 0
856 -443 495 -1161 -1163 0
856 443 495 1161 -1163 0
856 -443 -495 -1161 1163 0
856 443 -495 1161 1163 0
856 11 -12 -13 -3892 0
856 11 -12 13 3892 0
856 -11 12 -13 -3892 0
856 -11 12 13 3892 0
856 -11 -12 13 -3892 0
856 11 12 13 -3892 0
856 -11 -12 -13 3892 0
856 11 12 -13 3892 0
856 -61 -65 3894 -3896 0
856 -61 65 3894 3896 0
856 61 -65 -3894 -3896 0
856 61 65 -3894 3896 0
856 -61 65 -3894 -3896 0
856 61 65 3894 -3896 0
856 -61 -65 -3894 3896 0
856 61 -65 3894 3896 0
856 -25 -32 2323 -2325 0
856 -25 32 2323 2325 0
856 25 -32 -2323 -2325 0
856 25 32 -2323 2325 0
856 -25 32 -2323 -2325 0
856 25 32 2323 -2325 0
856 -25 -32 -2323 2325 0
856 25 -32 2323 2325 0
856 -366 -367 4644 -4646 0
856 -366 367 4644 4646 0
856 366 -367 -4644 -4646 0
856 366 367 -4644 4646 0
856 -366 367 -4644 -4646 0
856 366 367 4644 -4646 0
856 -366 -367 -4644 4646 0
856 366 -367 4644 4646 0
856 57 -63 -75 -2534 0
856 57 -63 75 2534 0
856 -57 63 -75 -2534 0
856 -57 63 75 2534 0
856 -57 -63 75 -2534 0
856 57 63 75 -2534 0
856 -57 -63 -75 2534 0
856 57 63 -75 2534 0
856 -452 -509 1952 -1954 0
856 -452 509 1952 1954 0
856 452 -509 -1952 -1954 0
856 452 509 -1952 1954 0
856 -452 509 -1952 -1954 0
856 452 509 1952 -1954 0
856 -452 -509 -1952 1954 0
856 452 -509 1952 1954 0
856 -61 -63 3910 -3912 0
856 -61 63 3910 3912 0
856 61 -63 -3910 -3912 0
856 61 63 -3910 3912 0
856 -61 63 -3910 -3912 0
856 61 63 3910 -3912 0
856 -61 -63 -3910 3912 0
856 61 -63 3910 3912 0
856 -67 -68 3914 -3916 0
856 -67 68 3914 3916 0
856 67 -68 -3914 -3916 0
856 67 68 -3914 3916 0
856 -67 68 -3914 -3916 0
856 67 68 3914 -3916 0
856 -67 -68 -3914 3916 0
856 67 -68 3914 3916 0
856 -458 -510 1266 -1268 0
856 -458 510 1266 1268 0
856 458 -510 -1266 -1268 0
856 458 510 -1266 1268 0
856 -458 510 -1266 -1268 0
856 458 510 1266 -1268 0
856 -458 -510 -1266 1268 0
856 458 -510 1266 1268 0
856 -116 -119 3918 -3920 0
856 -116 119 3918 3920 0
856 116 -119 -3918 -3920 0
856 116 119 -3918 3920 0
856 -116 119 -3918 -3920 0
856 116 119 3918 -3920 0
856 -116 -119 -3918 3920 0
856 116 -119 3918 3920 0
856 341 -342 -343 -4636 0
856 341 -342 343 4636 0
856 -341 342 -343 -4636 0
856 -341 342 343 4636 0
856 -341 -342 343 -4636 0
856 341 342 343 -4636 0
856 -341 -342 -343 4636 0
856 341 342 -343 4636 0
856 -62 -64 3926 -3928 0
856 -62 64 3926 3928 0
856 62 -64 -3926 -3928 0
856 62 64 -3926 3928 0
856 -62 64 -3926 -3928 0
856 62 64 3926 -3928 0
856 -62 -64 -3926 3928 0
856 62 -64 3926 3928 0
856 -560 -654 1961 -1963 0
856 -560 654 1961 1963 0
856 560 -654 -1961 -1963 0
856 560 654 -1961 1963 0
856 -560 654 -1961 -1963 0
856 560 654 1961 -1963 0
856 -560 -654 -1961 1963 0
856 560 -654 1961 1963 0
856 -22 -40 2316 -2318 0
856 -22 40 2316 2318 0
856 22 -40 -2316 -2318 0
856 22 40 -2316 2318 0
856 -22 40 -2316 -2318 0
856 22 40 2316 -2318 0
856 -22 -40 -2316 2318 0
856 22 -40 2316 2318 0
856 356 -402 -454 -1967 0
856 356 -402 454 1967 0
856 -356 402 -454 -1967 0
856 -356 402 454 1967 0
856 -356 -402 454 -1967 0
856 356 402 454 -1967 0
856 -356 -402 -454 1967 0
856 356 402 -454 1967 0
856 -551 -655 1968 -1970 0
856 -551 655 1968 1970 0
856 551 -655 -1968 -1970 0
856 551 655 -1968 1970 0
856 -551 655 -1968 -1970 0
856 551 655 1968 -1970 0
856 -551 -655 -1968 1970 0
856 551 -655 1968 1970 0
856 -19 -20 3942 -3944 0
856 -19 20 3942 3944 0
856 19 -20 -3942 -3944 0
856 19 20 -3942 3944 0
856 -19 20 -3942 -3944 0
856 19 20 3942 -3944 0
856 -19 -20 -3942 3944 0
856 19 -20 3942 3944 0
856 -64 -68 3946 -3948 0
856 -64 68 3946 3948 0
856 64 -68 -3946 -3948 0
856 64 68 -3946 3948 0
856 -64 68 -3946 -3948 0
856 64 68 3946 -3948 0
856 -64 -68 -3946 3948 0
856 64 -68 3946 3948 0
856 -62 -63 3958 -3960 0
856 -62 63 3958 3960 0
856 62 -63 -3958 -3960 0
856 62 63 -3958 3960 0
856 -62 63 -3958 -3960 0
856 62 63 3958 -3960 0
856 -62 -63 -3958 3960 0
856 62 -63 3958 3960 0
856 -41 -266 2311 -2313 0
856 -41 266 2311 2313 0
856 41 -266 -2311 -2313 0
856 41 266 -2311 2313 0
856 -41 266 -2311 -2313 0
856 41 266 2311 -2313 0
856 -41 -266 -2311 2313 0
856 41 -266 2311 2313 0
856 11 -12 -14 -3970 0
856 11 -12 14 3970 0
856 -11 12 -14 -3970 0
856 -11 12 14 3970 0
856 -11 -12 14 -3970 0
856 11 12 14 -3970 0
856 -11 -12 -14 3970 0
856 11 12 -14 3970 0
856 -62 -65 3973 -3975 0
856 -62 65 3973 3975 0
856 62 -65 -3973 -3975 0
856 62 65 -3973 3975 0
856 -62 65 -3973 -3975 0
856 62 65 3973 -3975 0
856 -62 -65 -3973 3975 0
856 62 -65 3973 3975 0
856 -118 -119 3982 -3984 0
856 -118 119 3982 3984 0
856 118 -119 -3982 -3984 0
856 118 119 -3982 3984 0
856 -118 119 -3982 -3984 0
856 118 119 3982 -3984 0
856 -118 -119 -3982 3984 0
856 118 -119 3982 3984 0
856 -69 -111 3977 -3979 0
856 -69 111 3977 3979 0
856 69 -111 -3977 -3979 0
856 69 111 -3977 3979 0
856 -69 111 -3977 -3979 0
856 69 111 3977 -3979 0
856 -69 -111 -3977 3979 0
856 69 -111 3977 3979 0
856 -564 -655 1989 -1991 0
856 -564 655 1989 1991 0
856 564 -655 -1989 -1991 0
856 564 655 -1989 1991 0
856 -564 655 -1989 -1991 0
856 564 655 1989 -1991 0
856 -564 -655 -1989 1991 0
856 564 -655 1989 1991 0
856 -133 -134 4200 -4202 0
856 -133 134 4200 4202 0
856 133 -134 -4200 -4202 0
856 133 134 -4200 4202 0
856 -133 134 -4200 -4202 0
856 133 134 4200 -4202 0
856 -133 -134 -4200 4202 0
856 133 -134 4200 4202 0
856 11 -12 -13 -3988 0
856 11 -12 13 3988 0
856 -11 12 -13 -3988 0
856 -11 12 13 3988 0
856 -11 -12 13 -3988 0
856 11 12 13 -3988 0
856 -11 -12 -13 3988 0
856 11 12 -13 3988 0
856 -345 -350 4618 -4620 0
856 -345 350 4618 4620 0
856 345 -350 -4618 -4620 0
856 345 350 -4618 4620 0
856 -345 350 -4618 -4620 0
856 345 350 4618 -4620 0
856 -345 -350 -4618 4620 0
856 345 -350 4618 4620 0
856 -92 -265 2528 -2530 0
856 -92 265 2528 2530 0
856 92 -265 -2528 -2530 0
856 92 265 -2528 2530 0
856 -92 265 -2528 -2530 0
856 92 265 2528 -2530 0
856 -92 -265 -2528 2530 0
856 92 -265 2528 2530 0
856 -61 -64 3990 -3992 0
856 -61 64 3990 3992 0
856 61 -64 -3990 -3992 0
856 61 64 -3990 3992 0
856 -61 64 -3990 -3992 0
856 61 64 3990 -3992 0
856 -61 -64 -3990 3992 0
856 61 -64 3990 3992 0
856 370 -416 -468 -1995 0
856 370 -416 468 1995 0
856 -370 416 -468 -1995 0
856 -370 416 468 1995 0
856 -370 -416 468 -1995 0
856 370 416 468 -1995 0
856 -370 -416 -468 1995 0
856 370 416 -468 1995 0
856 -579 -658 2094 -2096 0
856 -579 658 2094 2096 0
856 579 -658 -2094 -2096 0
856 579 658 -2094 2096 0
856 -579 658 -2094 -2096 0
856 579 658 2094 -2096 0
856 -579 -658 -2094 2096 0
856 579 -658 2094 2096 0
856 361 -417 -469 -2002 0
856 361 -417 469 2002 0
856 -361 417 -469 -2002 0
856 -361 417 469 2002 0
856 -361 -417 469 -2002 0
856 361 417 469 -2002 0
856 -361 -417 -469 2002 0
856 361 417 -469 2002 0
856 -66 -68 4006 -4008 0
856 -66 68 4006 4008 0
856 66 -68 -4006 -4008 0
856 66 68 -4006 4008 0
856 -66 68 -4006 -4008 0
856 66 68 4006 -4008 0
856 -66 -68 -4006 4008 0
856 66 -68 4006 4008 0
856 -117 -118 4010 -4012 0
856 -117 118 4010 4012 0
856 117 -118 -4010 -4012 0
856 117 118 -4010 4012 0
856 -117 118 -4010 -4012 0
856 117 118 4010 -4012 0
856 -117 -118 -4010 4012 0
856 117 -118 4010 4012 0
856 347 -399 -442 -1155 0
856 347 -399 442 1155 0
856 -347 399 -442 -1155 0
856 -347 399 442 1155 0
856 -347 -399 442 -1155 0
856 347 399 442 -1155 0
856 -347 -399 -442 1155 0
856 347 399 -442 1155 0
856 13 -14 -15 -4016 0
856 13 -14 15 4016 0
856 -13 14 -15 -4016 0
856 -13 14 15 4016 0
856 -13 -14 15 -4016 0
856 13 14 15 -4016 0
856 -13 -14 -15 4016 0
856 13 14 -15 4016 0
856 -63 -66 4018 -4020 0
856 -63 66 4018 4020 0
856 63 -66 -4018 -4020 0
856 63 66 -4018 4020 0
856 -63 66 -4018 -4020 0
856 63 66 4018 -4020 0
856 -63 -66 -4018 4020 0
856 63 -66 4018 4020 0
856 -113 -116 4022 -4024 0
856 -113 116 4022 4024 0
856 113 -116 -4022 -4024 0
856 113 116 -4022 4024 0
856 -113 116 -4022 -4024 0
856 113 116 4022 -4024 0
856 -113 -116 -4022 4024 0
856 113 -116 4022 4024 0
856 -50 -265 2304 -2306 0
856 -50 265 2304 2306 0
856 50 -265 -2304 -2306 0
856 50 265 -2304 2306 0
856 -50 265 -2304 -2306 0
856 50 265 2304 -2306 0
856 -50 -265 -2304 2306 0
856 50 -265 2304 2306 0
856 363 -419 -461 -2016 0
856 363 -419 461 2016 0
856 -363 419 -461 -2016 0
856 -363 419 461 2016 0
856 -363 -419 461 -2016 0
856 363 419 461 -2016 0
856 -363 -419 -461 2016 0
856 363 419 -461 2016 0
856 374 -430 -472 -2093 0
856 374 -430 472 2093 0
856 -374 430 -472 -2093 0
856 -374 430 472 2093 0
856 -374 -430 472 -2093 0
856 374 430 472 -2093 0
856 -374 -430 -472 2093 0
856 374 430 -472 2093 0
856 -124 -126 4038 -4040 0
856 -124 126 4038 4040 0
856 124 -126 -4038 -4040 0
856 124 126 -4038 4040 0
856 -124 126 -4038 -4040 0
856 124 126 4038 -4040 0
856 -124 -126 -4038 4040 0
856 124 -126 4038 4040 0
856 -75 -78 4033 -4035 0
856 -75 78 4033 4035 0
856 75 -78 -4033 -4035 0
856 75 78 -4033 4035 0
856 -75 78 -4033 -4035 0
856 75 78 4033 -4035 0
856 -75 -78 -4033 4035 0
856 75 -78 4033 4035 0
856 -518 -568 2016 -2018 0
856 -518 568 2016 2018 0
856 518 -568 -2016 -2018 0
856 518 568 -2016 2018 0
856 -518 568 -2016 -2018 0
856 518 568 2016 -2018 0
856 -518 -568 -2016 2018 0
856 518 -568 2016 2018 0
856 58 -67 -71 -2520 0
856 58 -67 71 2520 0
856 -58 67 -71 -2520 0
856 -58 67 71 2520 0
856 -58 -67 71 -2520 0
856 58 67 71 -2520 0
856 -58 -67 -71 2520 0
856 58 67 -71 2520 0
856 -557 -594 1261 -1263 0
856 -557 594 1261 1263 0
856 557 -594 -1261 -1263 0
856 557 594 -1261 1263 0
856 -557 594 -1261 -1263 0
856 557 594 1261 -1263 0
856 -557 -594 -1261 1263 0
856 557 -594 1261 1263 0
856 -34 -38 4046 -4048 0
856 -34 38 4046 4048 0
856 34 -38 -4046 -4048 0
856 34 38 -4046 4048 0
856 -34 38 -4046 -4048 0
856 34 38 4046 -4048 0
856 -34 -38 -4046 4048 0
856 34 -38 4046 4048 0
856 -99 -102 4188 -4190 0
856 -99 102 4188 4190 0
856 99 -102 -4188 -4190 0
856 99 102 -4188 4190 0
856 -99 102 -4188 -4190 0
856 99 102 4188 -4190 0
856 -99 -102 -4188 4190 0
856 99 -102 4188 4190 0
856 -88 -89 4050 -4052 0
856 -88 89 4050 4052 0
856 88 -89 -4050 -4052 0
856 88 89 -4050 4052 0
856 -88 89 -4050 -4052 0
856 88 89 4050 -4052 0
856 -88 -89 -4050 4052 0
856 88 -89 4050 4052 0
856 -134 -136 4054 -4056 0
856 -134 136 4054 4056 0
856 134 -136 -4054 -4056 0
856 134 136 -4054 4056 0
856 -134 136 -4054 -4056 0
856 134 136 4054 -4056 0
856 -134 -136 -4054 4056 0
856 134 -136 4054 4056 0
856 -131 -132 4070 -4072 0
856 -131 132 4070 4072 0
856 131 -132 -4070 -4072 0
856 131 132 -4070 4072 0
856 -131 132 -4070 -4072 0
856 131 132 4070 -4072 0
856 -131 -132 -4070 4072 0
856 131 -132 4070 4072 0
856 -541 -600 1149 -1151 0
856 -541 600 1149 1151 0
856 541 -600 -1149 -1151 0
856 541 600 -1149 1151 0
856 -541 600 -1149 -1151 0
856 541 600 1149 -1151 0
856 -541 -600 -1149 1151 0
856 541 -600 1149 1151 0
856 -464 -511 2036 -2038 0
856 -464 511 2036 2038 0
856 464 -511 -2036 -2038 0
856 464 511 -2036 2038 0
856 -464 511 -2036 -2038 0
856 464 511 2036 -2038 0
856 -464 -511 -2036 2038 0
856 464 -511 2036 2038 0
856 -361 -363 4596 -4598 0
856 -361 363 4596 4598 0
856 361 -363 -4596 -4598 0
856 361 363 -4596 4598 0
856 -361 363 -4596 -4598 0
856 361 363 4596 -4598 0
856 -361 -363 -4596 4598 0
856 361 -363 4596 4598 0
856 -25 -26 4086 -4088 0
856 -25 26 4086 4088 0
856 25 -26 -4086 -4088 0
856 25 26 -4086 4088 0
856 -25 26 -4086 -4088 0
856 25 26 4086 -4088 0
856 -25 -26 -4086 4088 0
856 25 -26 4086 4088 0
856 -13 -17 4082 -4084 0
856 -13 17 4082 4084 0
856 13 -17 -4082 -4084 0
856 13 17 -4082 4084 0
856 -13 17 -4082 -4084 0
856 13 17 4082 -4084 0
856 -13 -17 -4082 4084 0
856 13 -17 4082 4084 0
856 -49 -264 2297 -2299 0
856 -49 264 2297 2299 0
856 49 -264 -2297 -2299 0
856 49 264 -2297 2299 0
856 -49 264 -2297 -2299 0
856 49 264 2297 -2299 0
856 -49 -264 -2297 2299 0
856 49 -264 2297 2299 0
856 -522 -572 2044 -2046 0
856 -522 572 2044 2046 0
856 522 -572 -2044 -2046 0
856 522 572 -2044 2046 0
856 -522 572 -2044 -2046 0
856 522 572 2044 -2046 0
856 -522 -572 -2044 2046 0
856 522 -572 2044 2046 0
