p wcnf 30 51 76
1 -9 0
1 -10 0
1 -11 0
1 -12 0
76 -5 -6 -17 0
76 5 6 -17 0
76 5 -6 17 0
76 -5 6 17 0
76 -5 -7 -29 0
76 5 7 -29 0
76 5 -7 29 0
76 -5 7 29 0
76 1 5 -9 0
76 -1 9 0
76 -5 9 0
76 2 6 -10 0
76 -2 10 0
76 -6 10 0
76 3 7 -11 0
76 -3 11 0
76 -7 11 0
76 -8 12 0
76 13 14 15 29 0
76 12 -21 0
76 1 3 5 6 7 8 21 0
76 1 2 3 5 6 7 12 0
76 8 -12 21 0
76 -7 8 17 0
76 7 8 -17 0
76 -7 -8 -17 0
76 7 -8 17 0
76 1 -2 13 0
76 -1 2 13 0
76 -1 -2 -13 0
76 1 2 -13 0
76 5 -6 15 0
76 -5 6 15 0
76 -5 -6 -15 0
76 5 6 -15 0
76 1 -3 14 0
76 -1 3 14 0
76 -1 -3 -14 0
76 1 3 -14 0
76 1 -2 -3 -21 0
76 1 -2 3 21 0
76 -1 2 -3 -21 0
76 -1 2 3 21 0
76 -1 -2 3 -21 0
76 1 2 3 -21 0
76 -1 -2 -3 21 0
76 1 2 -3 21 0
