p wcnf 37 55 80
1 -11 0
1 -12 0
1 -13 0
1 -14 0
1 -15 0
80 -3 -4 -24 0
80 3 4 -24 0
80 3 -4 24 0
80 -3 4 24 0
80 -3 -4 -28 0
80 3 4 -28 0
80 3 -4 28 0
80 -3 4 28 0
80 -8 -9 -35 0
80 8 9 -35 0
80 8 -9 35 0
80 -8 9 35 0
80 -1 11 0
80 -7 12 0
80 3 8 -13 0
80 -3 13 0
80 -8 13 0
80 4 9 -14 0
80 -4 14 0
80 -9 14 0
80 5 10 -15 0
80 -5 15 0
80 -10 15 0
80 17 18 19 20 21 24 0
80 -1 12 0
80 1 7 -12 0
80 -7 11 0
80 1 3 4 5 7 8 9 10 0
80 3 4 5 8 9 10 11 0
80 1 7 -11 0
80 4 -5 17 0
80 -4 5 17 0
80 -4 -5 -17 0
80 4 5 -17 0
80 -5 18 28 0
80 5 18 -28 0
80 -5 -18 -28 0
80 5 -18 28 0
80 8 -9 19 0
80 -8 9 19 0
80 -8 -9 -19 0
80 8 9 -19 0
80 9 -10 20 0
80 -9 10 20 0
80 -9 -10 -20 0
80 9 10 -20 0
80 -10 21 35 0
80 10 21 -35 0
80 -10 -21 -35 0
80 10 -21 35 0
